"U_X","U_Y","EpsiXX","EpsiYY","EpsiXY","SigmaXX","SigmaYY","SigmaXY","vtkValidPointMask","arc_length","Points:0","Points:1","Points:2"
0,0,5.8485e-05,7.1468e-22,-5.177e-11,10.4,3.1404,-1.6666e-06,1,0,0,0,0
5.8485e-05,-1.0354e-10,5.8601e-05,-1.195e-07,-6.2651e-11,10.411,3.1242,-2.0185e-06,1,1,1,0,0
0.00011697,-2.0708e-10,5.8717e-05,-2.3901e-07,-7.3531e-11,10.422,3.1081,-2.3703e-06,1,2,2,0,0
0.00017545,-3.1062e-10,5.8833e-05,-3.5851e-07,-8.4412e-11,10.432,3.092,-2.7222e-06,1,3,3,0,0
0.00023394,-4.1416e-10,5.8949e-05,-4.7802e-07,-9.5292e-11,10.443,3.0758,-3.074e-06,1,4,4,0,0
0.00029242,-5.177e-10,5.9065e-05,-5.9752e-07,-1.0617e-10,10.454,3.0597,-3.4259e-06,1,5,5,0,0
0.00035091,-6.2124e-10,5.9181e-05,-7.1703e-07,-1.1705e-10,10.465,3.0436,-3.7777e-06,1,6,6,0,0
0.00040939,-7.2478e-10,5.9297e-05,-8.3653e-07,-1.2793e-10,10.475,3.0274,-4.1296e-06,1,7,7,0,0
0.00046788,-8.2832e-10,5.9413e-05,-9.5604e-07,-1.3881e-10,10.486,3.0113,-4.4814e-06,1,8,8,0,0
0.00052636,-9.3186e-10,5.9529e-05,-1.0755e-06,-1.497e-10,10.497,2.9952,-4.8333e-06,1,9,9,0,0
0.00058485,-1.0354e-09,5.9645e-05,-1.1951e-06,-1.6058e-10,10.507,2.979,-5.1851e-06,1,10,10,0,0
0.00064565,-8.7066e-10,5.9873e-05,-1.3182e-06,-1.7007e-10,10.535,2.9676,-5.492e-06,1,11,11,0,0
0.00070646,-7.0591e-10,6.0102e-05,-1.4414e-06,-1.7957e-10,10.563,2.9562,-5.7988e-06,1,12,12,0,0
0.00076727,-5.4117e-10,6.033e-05,-1.5646e-06,-1.8907e-10,10.592,2.9448,-6.1057e-06,1,13,13,0,0
0.00082807,-3.7642e-10,6.0558e-05,-1.6877e-06,-1.9856e-10,10.62,2.9334,-6.4126e-06,1,14,14,0,0
0.00088888,-2.1168e-10,6.0786e-05,-1.8109e-06,-2.0806e-10,10.648,2.922,-6.7195e-06,1,15,15,0,0
0.00094969,-4.6934e-11,6.1014e-05,-1.9341e-06,-2.1756e-10,10.676,2.9106,-7.0263e-06,1,16,16,0,0
0.0010105,1.1781e-10,6.1242e-05,-2.0572e-06,-2.2706e-10,10.704,2.8992,-7.3332e-06,1,17,17,0,0
0.0010713,2.8256e-10,6.147e-05,-2.1804e-06,-2.3655e-10,10.732,2.8878,-7.6401e-06,1,18,18,0,0
0.0011321,4.473e-10,6.1698e-05,-2.3036e-06,-2.4605e-10,10.76,2.8764,-7.947e-06,1,19,19,0,0
0.0011929,6.1204e-10,6.1926e-05,-2.4267e-06,-2.5555e-10,10.788,2.865,-8.2539e-06,1,20,20,0,0
0.001256,7.6987e-10,6.2143e-05,-2.5527e-06,-2.3872e-10,10.815,2.8527,-7.7105e-06,1,21,21,0,0
0.001319,9.2769e-10,6.236e-05,-2.6786e-06,-2.2189e-10,10.841,2.8405,-7.1672e-06,1,22,22,0,0
0.001382,1.0855e-09,6.2577e-05,-2.8046e-06,-2.0507e-10,10.867,2.8282,-6.6239e-06,1,23,23,0,0
0.0014451,1.2433e-09,6.2793e-05,-2.9306e-06,-1.8824e-10,10.894,2.816,-6.0806e-06,1,24,24,0,0
0.0015081,1.4012e-09,6.301e-05,-3.0565e-06,-1.7142e-10,10.92,2.8037,-5.5373e-06,1,25,25,0,0
0.0015712,1.559e-09,6.3227e-05,-3.1825e-06,-1.5459e-10,10.947,2.7915,-4.994e-06,1,26,26,0,0
0.0016342,1.7168e-09,6.3444e-05,-3.3084e-06,-1.3776e-10,10.973,2.7792,-4.4507e-06,1,27,27,0,0
0.0016973,1.8746e-09,6.3661e-05,-3.4344e-06,-1.2094e-10,10.999,2.7669,-3.9074e-06,1,28,28,0,0
0.0017603,2.0324e-09,6.3878e-05,-3.5603e-06,-1.0411e-10,11.026,2.7547,-3.3641e-06,1,29,29,0,0
0.0018234,2.1903e-09,6.4095e-05,-3.6863e-06,-8.7284e-11,11.052,2.7424,-2.8208e-06,1,30,30,0,0
0.0018885,2.1627e-09,6.4296e-05,-3.814e-06,-6.7645e-11,11.076,2.7293,-2.1868e-06,1,31,31,0,0
0.0019537,2.1351e-09,6.4497e-05,-3.9418e-06,-4.8007e-11,11.101,2.7161,-1.5528e-06,1,32,32,0,0
0.0020188,2.1075e-09,6.4698e-05,-4.0695e-06,-2.8369e-11,11.125,2.703,-9.1885e-07,1,33,33,0,0
0.0020839,2.0799e-09,6.4898e-05,-4.1972e-06,-8.7302e-12,11.149,2.6898,-2.8489e-07,1,34,34,0,0
0.0021491,2.0524e-09,6.5099e-05,-4.325e-06,1.0908e-11,11.173,2.6767,3.4907e-07,1,35,35,0,0
0.0022142,2.0248e-09,6.53e-05,-4.4527e-06,3.0547e-11,11.197,2.6635,9.8304e-07,1,36,36,0,0
0.0022794,1.9972e-09,6.5501e-05,-4.5805e-06,5.0185e-11,11.221,2.6504,1.617e-06,1,37,37,0,0
0.0023445,1.9696e-09,6.5702e-05,-4.7082e-06,6.9823e-11,11.245,2.6372,2.251e-06,1,38,38,0,0
0.0024097,1.942e-09,6.5903e-05,-4.836e-06,8.9462e-11,11.269,2.6241,2.8849e-06,1,39,39,0,0
0.0024748,1.9144e-09,6.6104e-05,-4.9637e-06,1.091e-10,11.293,2.6109,3.5189e-06,1,40,40,0,0
0.0025419,1.7088e-09,6.6286e-05,-5.0921e-06,1.275e-10,11.315,2.5969,4.1126e-06,1,41,41,0,0
0.0026089,1.5031e-09,6.6467e-05,-5.2206e-06,1.4589e-10,11.336,2.5829,4.7064e-06,1,42,42,0,0
0.002676,1.2975e-09,6.6649e-05,-5.349e-06,1.6429e-10,11.358,2.5689,5.3001e-06,1,43,43,0,0
0.0027431,1.0918e-09,6.6831e-05,-5.4774e-06,1.8268e-10,11.379,2.5549,5.8938e-06,1,44,44,0,0
0.0028101,8.862e-10,6.7012e-05,-5.6059e-06,2.0108e-10,11.4,2.5409,6.4875e-06,1,45,45,0,0
0.0028772,6.8055e-10,6.7194e-05,-5.7343e-06,2.1947e-10,11.422,2.5269,7.0813e-06,1,46,46,0,0
0.0029443,4.749e-10,6.7376e-05,-5.8627e-06,2.3787e-10,11.443,2.5129,7.675e-06,1,47,47,0,0
0.0030113,2.6925e-10,6.7558e-05,-5.9911e-06,2.5627e-10,11.465,2.4989,8.2687e-06,1,48,48,0,0
0.0030784,6.3605e-11,6.7739e-05,-6.1196e-06,2.7466e-10,11.486,2.4849,8.8624e-06,1,49,49,0,0
0.0031455,-1.4204e-10,6.7921e-05,-6.248e-06,2.9306e-10,11.507,2.4708,9.4562e-06,1,50,50,0,0
0.0032142,-5.8333e-10,6.8081e-05,-6.3758e-06,2.9519e-10,11.526,2.4561,9.5245e-06,1,51,51,0,0
0.003283,-1.0246e-09,6.8241e-05,-6.5037e-06,2.9732e-10,11.544,2.4413,9.5929e-06,1,52,52,0,0
0.0033518,-1.4659e-09,6.8401e-05,-6.6316e-06,2.9946e-10,11.562,2.4265,9.6613e-06,1,53,53,0,0
0.0034206,-1.9072e-09,6.8561e-05,-6.7594e-06,3.0159e-10,11.581,2.4118,9.7296e-06,1,54,54,0,0
0.0034893,-2.3485e-09,6.872e-05,-6.8873e-06,3.0372e-10,11.599,2.397,9.798e-06,1,55,55,0,0
0.0035581,-2.7897e-09,6.888e-05,-7.0151e-06,3.0586e-10,11.617,2.3822,9.8663e-06,1,56,56,0,0
0.0036269,-3.231e-09,6.904e-05,-7.143e-06,3.0799e-10,11.636,2.3674,9.9347e-06,1,57,57,0,0
0.0036957,-3.6723e-09,6.92e-05,-7.2709e-06,3.1012e-10,11.654,2.3527,1.0003e-05,1,58,58,0,0
0.0037644,-4.1136e-09,6.936e-05,-7.3987e-06,3.1225e-10,11.672,2.3379,1.0071e-05,1,59,59,0,0
0.0038332,-4.5549e-09,6.952e-05,-7.5266e-06,3.1439e-10,11.691,2.3231,1.014e-05,1,60,60,0,0
0.0039035,-4.931e-09,6.9657e-05,-7.6527e-06,3.1975e-10,11.706,2.3077,1.0312e-05,1,61,61,0,0
0.0039737,-5.3071e-09,6.9794e-05,-7.7789e-06,3.2511e-10,11.721,2.2923,1.0485e-05,1,62,62,0,0
0.004044,-5.6832e-09,6.9931e-05,-7.905e-06,3.3046e-10,11.736,2.2769,1.0657e-05,1,63,63,0,0
0.0041143,-6.0593e-09,7.0068e-05,-8.0312e-06,3.3582e-10,11.752,2.2615,1.083e-05,1,64,64,0,0
0.0041845,-6.4354e-09,7.0206e-05,-8.1573e-06,3.4118e-10,11.767,2.2461,1.1003e-05,1,65,65,0,0
0.0042548,-6.8115e-09,7.0343e-05,-8.2834e-06,3.4654e-10,11.782,2.2307,1.1175e-05,1,66,66,0,0
0.0043251,-7.1876e-09,7.048e-05,-8.4096e-06,3.519e-10,11.797,2.2153,1.1348e-05,1,67,67,0,0
0.0043953,-7.5637e-09,7.0617e-05,-8.5357e-06,3.5726e-10,11.812,2.1999,1.152e-05,1,68,68,0,0
0.0044656,-7.9398e-09,7.0754e-05,-8.6619e-06,3.6262e-10,11.828,2.1845,1.1693e-05,1,69,69,0,0
0.0045359,-8.3159e-09,7.0891e-05,-8.788e-06,3.6798e-10,11.843,2.1691,1.1865e-05,1,70,70,0,0
0.0046074,-8.6963e-09,7.1006e-05,-8.9114e-06,3.4701e-10,11.855,2.1532,1.1188e-05,1,71,71,0,0
0.0046789,-9.0767e-09,7.1121e-05,-9.0347e-06,3.2605e-10,11.867,2.1374,1.051e-05,1,72,72,0,0
0.0047504,-9.4572e-09,7.1236e-05,-9.158e-06,3.0509e-10,11.879,2.1215,9.8324e-06,1,73,73,0,0
0.0048219,-9.8376e-09,7.1351e-05,-9.2814e-06,2.8413e-10,11.891,2.1057,9.1547e-06,1,74,74,0,0
0.0048935,-1.0218e-08,7.1465e-05,-9.4047e-06,2.6317e-10,11.904,2.0899,8.477e-06,1,75,75,0,0
0.004965,-1.0598e-08,7.158e-05,-9.528e-06,2.4221e-10,11.916,2.074,7.7994e-06,1,76,76,0,0
0.0050365,-1.0979e-08,7.1695e-05,-9.6514e-06,2.2125e-10,11.928,2.0582,7.1217e-06,1,77,77,0,0
0.005108,-1.1359e-08,7.181e-05,-9.7747e-06,2.0029e-10,11.94,2.0424,6.444e-06,1,78,78,0,0
0.0051795,-1.174e-08,7.1925e-05,-9.8981e-06,1.7933e-10,11.952,2.0265,5.7663e-06,1,79,79,0,0
0.0052511,-1.212e-08,7.204e-05,-1.0021e-05,1.5837e-10,11.964,2.0107,5.0886e-06,1,80,80,0,0
0.0053236,-1.2401e-08,7.2134e-05,-1.0141e-05,1.4695e-10,11.974,1.9947,4.7196e-06,1,81,81,0,0
0.0053962,-1.2682e-08,7.2228e-05,-1.026e-05,1.3554e-10,11.983,1.9786,4.3505e-06,1,82,82,0,0
0.0054687,-1.2962e-08,7.2323e-05,-1.038e-05,1.2412e-10,11.993,1.9626,3.9814e-06,1,83,83,0,0
0.0055413,-1.3243e-08,7.2417e-05,-1.0499e-05,1.1271e-10,12.002,1.9466,3.6123e-06,1,84,84,0,0
0.0056138,-1.3524e-08,7.2512e-05,-1.0619e-05,1.0129e-10,12.012,1.9306,3.2432e-06,1,85,85,0,0
0.0056864,-1.3804e-08,7.2606e-05,-1.0738e-05,8.988e-11,12.021,1.9145,2.8741e-06,1,86,86,0,0
0.005759,-1.4085e-08,7.2701e-05,-1.0857e-05,7.8465e-11,12.031,1.8985,2.505e-06,1,87,87,0,0
0.0058315,-1.4366e-08,7.2795e-05,-1.0977e-05,6.705e-11,12.04,1.8825,2.136e-06,1,88,88,0,0
0.0059041,-1.4647e-08,7.2889e-05,-1.1096e-05,5.5636e-11,12.049,1.8665,1.7669e-06,1,89,89,0,0
0.0059766,-1.4927e-08,7.2984e-05,-1.1216e-05,4.4221e-11,12.059,1.8504,1.3978e-06,1,90,90,0,0
0.00605,-1.4897e-08,7.3063e-05,-1.133e-05,2.4965e-11,12.066,1.8346,7.7571e-07,1,91,91,0,0
0.0061235,-1.4866e-08,7.3143e-05,-1.1445e-05,5.7086e-12,12.074,1.8187,1.5363e-07,1,92,92,0,0
0.0061969,-1.4836e-08,7.3222e-05,-1.156e-05,-1.3548e-11,12.081,1.8029,-4.6846e-07,1,93,93,0,0
0.0062703,-1.4805e-08,7.3301e-05,-1.1674e-05,-3.2804e-11,12.089,1.787,-1.0905e-06,1,94,94,0,0
0.0063437,-1.4774e-08,7.338e-05,-1.1789e-05,-5.206e-11,12.096,1.7712,-1.7126e-06,1,95,95,0,0
0.0064171,-1.4744e-08,7.346e-05,-1.1904e-05,-7.1317e-11,12.104,1.7553,-2.3347e-06,1,96,96,0,0
0.0064905,-1.4713e-08,7.3539e-05,-1.2018e-05,-9.0573e-11,12.111,1.7395,-2.9568e-06,1,97,97,0,0
0.0065639,-1.4683e-08,7.3618e-05,-1.2133e-05,-1.0983e-10,12.119,1.7236,-3.5789e-06,1,98,98,0,0
0.0066373,-1.4652e-08,7.3698e-05,-1.2247e-05,-1.2909e-10,12.126,1.7078,-4.2009e-06,1,99,99,0,0
0.0067107,-1.4621e-08,7.3777e-05,-1.2362e-05,-1.4834e-10,12.133,1.6919,-4.823e-06,1,100,100,0,0
0.0067849,-1.4049e-08,7.3847e-05,-1.2471e-05,-1.8479e-10,12.14,1.6766,-6.0003e-06,1,101,101,0,0
0.006859,-1.3476e-08,7.3918e-05,-1.2581e-05,-2.2125e-10,12.146,1.6612,-7.1775e-06,1,102,102,0,0
0.0069332,-1.2904e-08,7.3988e-05,-1.269e-05,-2.577e-10,12.152,1.6459,-8.3547e-06,1,103,103,0,0
0.0070073,-1.2332e-08,7.4059e-05,-1.2799e-05,-2.9415e-10,12.159,1.6306,-9.532e-06,1,104,104,0,0
0.0070814,-1.1759e-08,7.4129e-05,-1.2908e-05,-3.306e-10,12.165,1.6152,-1.0709e-05,1,105,105,0,0
0.0071556,-1.1187e-08,7.42e-05,-1.3018e-05,-3.6705e-10,12.171,1.5999,-1.1886e-05,1,106,106,0,0
0.0072297,-1.0614e-08,7.427e-05,-1.3127e-05,-4.035e-10,12.178,1.5846,-1.3064e-05,1,107,107,0,0
0.0073039,-1.0042e-08,7.4341e-05,-1.3236e-05,-4.3995e-10,12.184,1.5692,-1.4241e-05,1,108,108,0,0
0.007378,-9.4692e-09,7.4411e-05,-1.3345e-05,-4.7641e-10,12.19,1.5539,-1.5418e-05,1,109,109,0,0
0.0074522,-8.8967e-09,7.4482e-05,-1.3454e-05,-5.1286e-10,12.197,1.5386,-1.6595e-05,1,110,110,0,0
0.007527,-8.1688e-09,7.4546e-05,-1.3558e-05,-4.8387e-10,12.202,1.5239,-1.5658e-05,1,111,111,0,0
0.0076018,-7.4409e-09,7.461e-05,-1.3661e-05,-4.5488e-10,12.208,1.5093,-1.4721e-05,1,112,112,0,0
0.0076766,-6.713e-09,7.4674e-05,-1.3765e-05,-4.259e-10,12.214,1.4947,-1.3784e-05,1,113,113,0,0
0.0077515,-5.9852e-09,7.4739e-05,-1.3868e-05,-3.9691e-10,12.219,1.4801,-1.2847e-05,1,114,114,0,0
0.0078263,-5.2573e-09,7.4803e-05,-1.3972e-05,-3.6792e-10,12.225,1.4654,-1.191e-05,1,115,115,0,0
0.0079011,-4.5294e-09,7.4867e-05,-1.4075e-05,-3.3894e-10,12.231,1.4508,-1.0972e-05,1,116,116,0,0
0.0079759,-3.8015e-09,7.4932e-05,-1.4179e-05,-3.0995e-10,12.236,1.4362,-1.0035e-05,1,117,117,0,0
0.0080507,-3.0736e-09,7.4996e-05,-1.4282e-05,-2.8096e-10,12.242,1.4215,-9.0982e-06,1,118,118,0,0
0.0081255,-2.3457e-09,7.506e-05,-1.4385e-05,-2.5198e-10,12.247,1.4069,-8.161e-06,1,119,119,0,0
0.0082004,-1.6178e-09,7.5124e-05,-1.4489e-05,-2.2299e-10,12.253,1.3923,-7.2239e-06,1,120,120,0,0
0.0082758,-1.3715e-09,7.5183e-05,-1.4586e-05,-1.904e-10,12.258,1.3784,-6.1702e-06,1,121,121,0,0
0.0083512,-1.1252e-09,7.5241e-05,-1.4684e-05,-1.5781e-10,12.263,1.3646,-5.1165e-06,1,122,122,0,0
0.0084267,-8.7884e-10,7.5299e-05,-1.4781e-05,-1.2522e-10,12.268,1.3507,-4.0628e-06,1,123,123,0,0
0.0085021,-6.3252e-10,7.5357e-05,-1.4878e-05,-9.2631e-11,12.273,1.3368,-3.0092e-06,1,124,124,0,0
0.0085775,-3.862e-10,7.5416e-05,-1.4976e-05,-6.0041e-11,12.278,1.323,-1.9555e-06,1,125,125,0,0
0.0086529,-1.3988e-10,7.5474e-05,-1.5073e-05,-2.7452e-11,12.283,1.3091,-9.0183e-07,1,126,126,0,0
0.0087284,1.0644e-10,7.5532e-05,-1.517e-05,5.1371e-12,12.288,1.2952,1.5184e-07,1,127,127,0,0
0.0088038,3.5276e-10,7.5591e-05,-1.5268e-05,3.7726e-11,12.293,1.2814,1.2055e-06,1,128,128,0,0
0.0088792,5.9908e-10,7.5649e-05,-1.5365e-05,7.0316e-11,12.298,1.2675,2.2592e-06,1,129,129,0,0
0.0089547,8.454e-10,7.5707e-05,-1.5462e-05,1.0291e-10,12.303,1.2536,3.3128e-06,1,130,130,0,0
0.0090306,8.9002e-10,7.576e-05,-1.5554e-05,1.122e-10,12.307,1.2406,3.6141e-06,1,131,131,0,0
0.0091066,9.3465e-10,7.5812e-05,-1.5645e-05,1.215e-10,12.311,1.2275,3.9154e-06,1,132,132,0,0
0.0091826,9.7927e-10,7.5864e-05,-1.5736e-05,1.308e-10,12.315,1.2144,4.2166e-06,1,133,133,0,0
0.0092586,1.0239e-09,7.5917e-05,-1.5827e-05,1.4009e-10,12.32,1.2014,4.5179e-06,1,134,134,0,0
0.0093346,1.0685e-09,7.5969e-05,-1.5918e-05,1.4939e-10,12.324,1.1883,4.8191e-06,1,135,135,0,0
0.0094106,1.1131e-09,7.6022e-05,-1.6009e-05,1.5869e-10,12.328,1.1753,5.1204e-06,1,136,136,0,0
0.0094865,1.1578e-09,7.6074e-05,-1.61e-05,1.6798e-10,12.333,1.1622,5.4217e-06,1,137,137,0,0
0.0095625,1.2024e-09,7.6126e-05,-1.6191e-05,1.7728e-10,12.337,1.1491,5.7229e-06,1,138,138,0,0
0.0096385,1.247e-09,7.6179e-05,-1.6282e-05,1.8658e-10,12.341,1.1361,6.0242e-06,1,139,139,0,0
0.0097145,1.2916e-09,7.6231e-05,-1.6373e-05,1.9587e-10,12.345,1.123,6.3254e-06,1,140,140,0,0
0.009791,1.1562e-09,7.6278e-05,-1.6457e-05,2.1273e-10,12.349,1.1108,6.8712e-06,1,141,141,0,0
0.0098675,1.0207e-09,7.6325e-05,-1.6542e-05,2.2959e-10,12.353,1.0986,7.417e-06,1,142,142,0,0
0.0099439,8.8521e-10,7.6372e-05,-1.6626e-05,2.4644e-10,12.356,1.0863,7.9628e-06,1,143,143,0,0
0.01002,7.4974e-10,7.6419e-05,-1.6711e-05,2.633e-10,12.36,1.0741,8.5086e-06,1,144,144,0,0
0.010097,6.1427e-10,7.6466e-05,-1.6796e-05,2.8016e-10,12.364,1.0619,9.0544e-06,1,145,145,0,0
0.010173,4.788e-10,7.6513e-05,-1.688e-05,2.9701e-10,12.368,1.0496,9.6002e-06,1,146,146,0,0
0.01025,3.4332e-10,7.6559e-05,-1.6965e-05,3.1387e-10,12.371,1.0374,1.0146e-05,1,147,147,0,0
0.010326,2.0785e-10,7.6606e-05,-1.7049e-05,3.3072e-10,12.375,1.0252,1.0692e-05,1,148,148,0,0
0.010403,7.2378e-11,7.6653e-05,-1.7134e-05,3.4758e-10,12.379,1.013,1.1238e-05,1,149,149,0,0
0.010479,-6.3094e-11,7.67e-05,-1.7219e-05,3.6444e-10,12.382,1.0007,1.1783e-05,1,150,150,0,0
0.010556,-3.8771e-10,7.6742e-05,-1.7297e-05,3.5727e-10,12.385,0.98934,1.1553e-05,1,151,151,0,0
0.010633,-7.1233e-10,7.6784e-05,-1.7375e-05,3.501e-10,12.389,0.97795,1.1323e-05,1,152,152,0,0
0.01071,-1.0369e-09,7.6826e-05,-1.7454e-05,3.4292e-10,12.392,0.96657,1.1092e-05,1,153,153,0,0
0.010787,-1.3616e-09,7.6867e-05,-1.7532e-05,3.3575e-10,12.395,0.95518,1.0862e-05,1,154,154,0,0
0.010864,-1.6862e-09,7.6909e-05,-1.761e-05,3.2858e-10,12.398,0.94379,1.0632e-05,1,155,155,0,0
0.010941,-2.0108e-09,7.6951e-05,-1.7688e-05,3.2141e-10,12.401,0.9324,1.0401e-05,1,156,156,0,0
0.011018,-2.3354e-09,7.6993e-05,-1.7767e-05,3.1424e-10,12.404,0.92101,1.0171e-05,1,157,157,0,0
0.011095,-2.66e-09,7.7035e-05,-1.7845e-05,3.0707e-10,12.408,0.90962,9.9409e-06,1,158,158,0,0
0.011172,-2.9846e-09,7.7076e-05,-1.7923e-05,2.999e-10,12.411,0.89824,9.7106e-06,1,159,159,0,0
0.011248,-3.3093e-09,7.7118e-05,-1.8001e-05,2.9273e-10,12.414,0.88685,9.4802e-06,1,160,160,0,0
0.011326,-3.6386e-09,7.7155e-05,-1.8073e-05,2.9174e-10,12.416,0.8763,9.4499e-06,1,161,161,0,0
0.011403,-3.9678e-09,7.7192e-05,-1.8145e-05,2.9076e-10,12.419,0.86576,9.4195e-06,1,162,162,0,0
0.01148,-4.2971e-09,7.7229e-05,-1.8217e-05,2.8977e-10,12.422,0.85521,9.3891e-06,1,163,163,0,0
0.011558,-4.6264e-09,7.7266e-05,-1.8289e-05,2.8879e-10,12.424,0.84467,9.3587e-06,1,164,164,0,0
0.011635,-4.9557e-09,7.7303e-05,-1.8361e-05,2.878e-10,12.427,0.83412,9.3284e-06,1,165,165,0,0
0.011712,-5.285e-09,7.7339e-05,-1.8433e-05,2.8682e-10,12.43,0.82358,9.298e-06,1,166,166,0,0
0.01179,-5.6143e-09,7.7376e-05,-1.8505e-05,2.8583e-10,12.432,0.81303,9.2676e-06,1,167,167,0,0
0.011867,-5.9436e-09,7.7413e-05,-1.8577e-05,2.8485e-10,12.435,0.80249,9.2372e-06,1,168,168,0,0
0.011944,-6.2729e-09,7.745e-05,-1.8649e-05,2.8386e-10,12.438,0.79194,9.2068e-06,1,169,169,0,0
0.012022,-6.6022e-09,7.7487e-05,-1.8721e-05,2.8288e-10,12.44,0.7814,9.1765e-06,1,170,170,0,0
0.012099,-7.0105e-09,7.7519e-05,-1.8787e-05,2.7239e-10,12.442,0.77169,8.8393e-06,1,171,171,0,0
0.012177,-7.4189e-09,7.7552e-05,-1.8852e-05,2.6191e-10,12.445,0.76197,8.5021e-06,1,172,172,0,0
0.012255,-7.8272e-09,7.7584e-05,-1.8918e-05,2.5143e-10,12.447,0.75226,8.1649e-06,1,173,173,0,0
0.012332,-8.2355e-09,7.7616e-05,-1.8984e-05,2.4095e-10,12.449,0.74254,7.8278e-06,1,174,174,0,0
0.01241,-8.6438e-09,7.7649e-05,-1.905e-05,2.3046e-10,12.451,0.73283,7.4906e-06,1,175,175,0,0
0.012488,-9.0522e-09,7.7681e-05,-1.9116e-05,2.1998e-10,12.453,0.72312,7.1534e-06,1,176,176,0,0
0.012565,-9.4605e-09,7.7713e-05,-1.9182e-05,2.095e-10,12.455,0.7134,6.8162e-06,1,177,177,0,0
0.012643,-9.8688e-09,7.7746e-05,-1.9247e-05,1.9902e-10,12.458,0.70369,6.479e-06,1,178,178,0,0
0.012721,-1.0277e-08,7.7778e-05,-1.9313e-05,1.8853e-10,12.46,0.69397,6.1419e-06,1,179,179,0,0
0.012798,-1.0685e-08,7.7811e-05,-1.9379e-05,1.7805e-10,12.462,0.68426,5.8047e-06,1,180,180,0,0
0.012876,-1.1056e-08,7.7839e-05,-1.9439e-05,1.7062e-10,12.464,0.67536,5.5659e-06,1,181,181,0,0
0.012954,-1.1426e-08,7.7867e-05,-1.9499e-05,1.6318e-10,12.466,0.66645,5.3271e-06,1,182,182,0,0
0.013032,-1.1796e-08,7.7895e-05,-1.9559e-05,1.5575e-10,12.467,0.65754,5.0882e-06,1,183,183,0,0
0.01311,-1.2166e-08,7.7923e-05,-1.9619e-05,1.4831e-10,12.469,0.64864,4.8494e-06,1,184,184,0,0
0.013188,-1.2536e-08,7.7951e-05,-1.9678e-05,1.4088e-10,12.471,0.63973,4.6106e-06,1,185,185,0,0
0.013266,-1.2907e-08,7.798e-05,-1.9738e-05,1.3345e-10,12.473,0.63083,4.3718e-06,1,186,186,0,0
0.013344,-1.3277e-08,7.8008e-05,-1.9798e-05,1.2601e-10,12.474,0.62192,4.133e-06,1,187,187,0,0
0.013422,-1.3647e-08,7.8036e-05,-1.9858e-05,1.1858e-10,12.476,0.61301,3.8942e-06,1,188,188,0,0
0.0135,-1.4017e-08,7.8064e-05,-1.9918e-05,1.1114e-10,12.478,0.60411,3.6554e-06,1,189,189,0,0
0.013578,-1.4387e-08,7.8092e-05,-1.9978e-05,1.0371e-10,12.48,0.5952,3.4165e-06,1,190,190,0,0
0.013656,-1.4701e-08,7.8116e-05,-2.0032e-05,1.0837e-10,12.481,0.58708,3.5685e-06,1,191,191,0,0
0.013734,-1.5015e-08,7.8141e-05,-2.0086e-05,1.1304e-10,12.482,0.57895,3.7205e-06,1,192,192,0,0
0.013813,-1.5329e-08,7.8165e-05,-2.0141e-05,1.1771e-10,12.484,0.57082,3.8725e-06,1,193,193,0,0
0.013891,-1.5643e-08,7.8189e-05,-2.0195e-05,1.2237e-10,12.485,0.5627,4.0245e-06,1,194,194,0,0
0.013969,-1.5957e-08,7.8213e-05,-2.0249e-05,1.2704e-10,12.486,0.55457,4.1765e-06,1,195,195,0,0
0.014047,-1.6271e-08,7.8237e-05,-2.0303e-05,1.317e-10,12.488,0.54644,4.3284e-06,1,196,196,0,0
0.014125,-1.6585e-08,7.8262e-05,-2.0357e-05,1.3637e-10,12.489,0.53832,4.4804e-06,1,197,197,0,0
0.014204,-1.69e-08,7.8286e-05,-2.0412e-05,1.4103e-10,12.49,0.53019,4.6324e-06,1,198,198,0,0
0.014282,-1.7214e-08,7.831e-05,-2.0466e-05,1.457e-10,12.492,0.52206,4.7844e-06,1,199,199,0,0
0.01436,-1.7528e-08,7.8334e-05,-2.052e-05,1.5037e-10,12.493,0.51394,4.9364e-06,1,200,200,0,0
0.014439,-1.7522e-08,7.8355e-05,-2.0569e-05,1.0632e-10,12.494,0.50655,3.5142e-06,1,201,201,0,0
0.014517,-1.7517e-08,7.8375e-05,-2.0618e-05,6.2264e-11,12.495,0.49916,2.092e-06,1,202,202,0,0
0.014595,-1.7512e-08,7.8396e-05,-2.0667e-05,1.8213e-11,12.496,0.49178,6.6975e-07,1,203,203,0,0
0.014674,-1.7507e-08,7.8416e-05,-2.0716e-05,-2.5838e-11,12.497,0.48439,-7.5246e-07,1,204,204,0,0
0.014752,-1.7501e-08,7.8437e-05,-2.0764e-05,-6.9889e-11,12.498,0.47701,-2.1747e-06,1,205,205,0,0
0.014831,-1.7496e-08,7.8458e-05,-2.0813e-05,-1.1394e-10,12.499,0.46962,-3.5969e-06,1,206,206,0,0
0.014909,-1.7491e-08,7.8478e-05,-2.0862e-05,-1.5799e-10,12.5,0.46223,-5.0191e-06,1,207,207,0,0
0.014988,-1.7486e-08,7.8499e-05,-2.0911e-05,-2.0204e-10,12.501,0.45485,-6.4413e-06,1,208,208,0,0
0.015066,-1.748e-08,7.8519e-05,-2.096e-05,-2.4609e-10,12.502,0.44746,-7.8635e-06,1,209,209,0,0
0.015144,-1.7475e-08,7.854e-05,-2.1009e-05,-2.9014e-10,12.503,0.44007,-9.2857e-06,1,210,210,0,0
0.015223,-1.7211e-08,7.8557e-05,-2.1053e-05,-2.9537e-10,12.504,0.43338,-9.4539e-06,1,211,211,0,0
0.015302,-1.6947e-08,7.8574e-05,-2.1096e-05,-3.0059e-10,12.505,0.4267,-9.6221e-06,1,212,212,0,0
0.01538,-1.6683e-08,7.8591e-05,-2.114e-05,-3.0582e-10,12.505,0.42001,-9.7903e-06,1,213,213,0,0
0.015459,-1.6419e-08,7.8609e-05,-2.1184e-05,-3.1104e-10,12.506,0.41332,-9.9585e-06,1,214,214,0,0
0.015538,-1.6155e-08,7.8626e-05,-2.1228e-05,-3.1627e-10,12.507,0.40664,-1.0127e-05,1,215,215,0,0
0.015616,-1.5891e-08,7.8643e-05,-2.1272e-05,-3.2149e-10,12.508,0.39995,-1.0295e-05,1,216,216,0,0
0.015695,-1.5627e-08,7.866e-05,-2.1315e-05,-3.2672e-10,12.508,0.39326,-1.0463e-05,1,217,217,0,0
0.015774,-1.5363e-08,7.8677e-05,-2.1359e-05,-3.3194e-10,12.509,0.38657,-1.0631e-05,1,218,218,0,0
0.015852,-1.5099e-08,7.8694e-05,-2.1403e-05,-3.3717e-10,12.51,0.37989,-1.0799e-05,1,219,219,0,0
0.015931,-1.4836e-08,7.8712e-05,-2.1447e-05,-3.4239e-10,12.51,0.3732,-1.0968e-05,1,220,220,0,0
0.01601,-1.471e-08,7.8726e-05,-2.1486e-05,-3.5011e-10,12.511,0.36718,-1.1217e-05,1,221,221,0,0
0.016088,-1.4585e-08,7.874e-05,-2.1525e-05,-3.5783e-10,12.511,0.36115,-1.1466e-05,1,222,222,0,0
0.016167,-1.4459e-08,7.8754e-05,-2.1564e-05,-3.6555e-10,12.512,0.35513,-1.1715e-05,1,223,223,0,0
0.016246,-1.4334e-08,7.8768e-05,-2.1603e-05,-3.7327e-10,12.512,0.34911,-1.1964e-05,1,224,224,0,0
0.016325,-1.4209e-08,7.8782e-05,-2.1642e-05,-3.8099e-10,12.512,0.34308,-1.2213e-05,1,225,225,0,0
0.016404,-1.4083e-08,7.8796e-05,-2.1681e-05,-3.8871e-10,12.513,0.33706,-1.2463e-05,1,226,226,0,0
0.016482,-1.3958e-08,7.8811e-05,-2.172e-05,-3.9643e-10,12.513,0.33104,-1.2712e-05,1,227,227,0,0
0.016561,-1.3833e-08,7.8825e-05,-2.1759e-05,-4.0415e-10,12.514,0.32502,-1.2961e-05,1,228,228,0,0
0.01664,-1.3707e-08,7.8839e-05,-2.1798e-05,-4.1187e-10,12.514,0.31899,-1.321e-05,1,229,229,0,0
0.016719,-1.3582e-08,7.8853e-05,-2.1837e-05,-4.1959e-10,12.514,0.31297,-1.3459e-05,1,230,230,0,0
0.016798,-1.3348e-08,7.8864e-05,-2.1872e-05,-4.0638e-10,12.515,0.30757,-1.3032e-05,1,231,231,0,0
0.016877,-1.3113e-08,7.8876e-05,-2.1907e-05,-3.9317e-10,12.515,0.30217,-1.2605e-05,1,232,232,0,0
0.016956,-1.2879e-08,7.8887e-05,-2.1941e-05,-3.7996e-10,12.515,0.29678,-1.2178e-05,1,233,233,0,0
0.017034,-1.2645e-08,7.8898e-05,-2.1976e-05,-3.6675e-10,12.515,0.29138,-1.1752e-05,1,234,234,0,0
0.017113,-1.2411e-08,7.891e-05,-2.2011e-05,-3.5353e-10,12.515,0.28598,-1.1325e-05,1,235,235,0,0
0.017192,-1.2176e-08,7.8921e-05,-2.2045e-05,-3.4032e-10,12.515,0.28058,-1.0898e-05,1,236,236,0,0
0.017271,-1.1942e-08,7.8932e-05,-2.208e-05,-3.2711e-10,12.516,0.27518,-1.0471e-05,1,237,237,0,0
0.01735,-1.1708e-08,7.8943e-05,-2.2115e-05,-3.139e-10,12.516,0.26978,-1.0044e-05,1,238,238,0,0
0.017429,-1.1473e-08,7.8955e-05,-2.2149e-05,-3.0069e-10,12.516,0.26439,-9.6169e-06,1,239,239,0,0
0.017508,-1.1239e-08,7.8966e-05,-2.2184e-05,-2.8748e-10,12.516,0.25899,-9.1899e-06,1,240,240,0,0
0.017587,-1.1105e-08,7.8975e-05,-2.2214e-05,-2.6588e-10,12.516,0.25416,-8.4924e-06,1,241,241,0,0
0.017666,-1.0971e-08,7.8984e-05,-2.2245e-05,-2.4428e-10,12.516,0.24934,-7.7948e-06,1,242,242,0,0
0.017745,-1.0836e-08,7.8993e-05,-2.2275e-05,-2.2268e-10,12.516,0.24452,-7.0972e-06,1,243,243,0,0
0.017824,-1.0702e-08,7.9001e-05,-2.2306e-05,-2.0109e-10,12.516,0.2397,-6.3996e-06,1,244,244,0,0
0.017903,-1.0568e-08,7.901e-05,-2.2337e-05,-1.7949e-10,12.516,0.23487,-5.702e-06,1,245,245,0,0
0.017982,-1.0433e-08,7.9019e-05,-2.2367e-05,-1.5789e-10,12.516,0.23005,-5.0044e-06,1,246,246,0,0
0.018061,-1.0299e-08,7.9028e-05,-2.2398e-05,-1.3629e-10,12.516,0.22523,-4.3068e-06,1,247,247,0,0
0.01814,-1.0165e-08,7.9037e-05,-2.2428e-05,-1.147e-10,12.516,0.2204,-3.6092e-06,1,248,248,0,0
0.018219,-1.003e-08,7.9046e-05,-2.2459e-05,-9.3099e-11,12.515,0.21558,-2.9116e-06,1,249,249,0,0
0.018298,-9.8958e-09,7.9055e-05,-2.2489e-05,-7.1502e-11,12.515,0.21076,-2.214e-06,1,250,250,0,0
0.018377,-9.9919e-09,7.9061e-05,-2.2516e-05,-9.5163e-11,12.515,0.20647,-2.9787e-06,1,251,251,0,0
0.018456,-1.0088e-08,7.9068e-05,-2.2543e-05,-1.1882e-10,12.515,0.20218,-3.7434e-06,1,252,252,0,0
0.018535,-1.0184e-08,7.9074e-05,-2.257e-05,-1.4249e-10,12.515,0.19789,-4.5081e-06,1,253,253,0,0
0.018614,-1.028e-08,7.9081e-05,-2.2596e-05,-1.6615e-10,12.514,0.1936,-5.2728e-06,1,254,254,0,0
0.018694,-1.0376e-08,7.9087e-05,-2.2623e-05,-1.8981e-10,12.514,0.18931,-6.0374e-06,1,255,255,0,0
0.018773,-1.0472e-08,7.9094e-05,-2.265e-05,-2.1347e-10,12.514,0.18502,-6.8021e-06,1,256,256,0,0
0.018852,-1.0568e-08,7.91e-05,-2.2677e-05,-2.3713e-10,12.514,0.18073,-7.5668e-06,1,257,257,0,0
0.018931,-1.0664e-08,7.9107e-05,-2.2704e-05,-2.6079e-10,12.513,0.17644,-8.3315e-06,1,258,258,0,0
0.01901,-1.076e-08,7.9113e-05,-2.273e-05,-2.8446e-10,12.513,0.17216,-9.0961e-06,1,259,259,0,0
0.019089,-1.0856e-08,7.912e-05,-2.2757e-05,-3.0812e-10,12.513,0.16787,-9.8608e-06,1,260,260,0,0
0.019168,-1.1149e-08,7.9124e-05,-2.278e-05,-3.0168e-10,12.512,0.16407,-9.6531e-06,1,261,261,0,0
0.019247,-1.1442e-08,7.9129e-05,-2.2804e-05,-2.9524e-10,12.512,0.16028,-9.4453e-06,1,262,262,0,0
0.019326,-1.1736e-08,7.9134e-05,-2.2827e-05,-2.8879e-10,12.511,0.15648,-9.2376e-06,1,263,263,0,0
0.019406,-1.2029e-08,7.9138e-05,-2.2851e-05,-2.8235e-10,12.511,0.15269,-9.0299e-06,1,264,264,0,0
0.019485,-1.2322e-08,7.9143e-05,-2.2874e-05,-2.7591e-10,12.511,0.1489,-8.8221e-06,1,265,265,0,0
0.019564,-1.2615e-08,7.9148e-05,-2.2897e-05,-2.6947e-10,12.51,0.1451,-8.6144e-06,1,266,266,0,0
0.019643,-1.2908e-08,7.9152e-05,-2.2921e-05,-2.6303e-10,12.51,0.14131,-8.4066e-06,1,267,267,0,0
0.019722,-1.3201e-08,7.9157e-05,-2.2944e-05,-2.5659e-10,12.509,0.13751,-8.1989e-06,1,268,268,0,0
0.019801,-1.3495e-08,7.9162e-05,-2.2967e-05,-2.5015e-10,12.509,0.13372,-7.9911e-06,1,269,269,0,0
0.01988,-1.3788e-08,7.9166e-05,-2.2991e-05,-2.4371e-10,12.508,0.12993,-7.7834e-06,1,270,270,0,0
0.01996,-1.4531e-08,7.9169e-05,-2.3011e-05,-2.1445e-10,12.508,0.12658,-6.8388e-06,1,271,271,0,0
0.020039,-1.5275e-08,7.9172e-05,-2.3031e-05,-1.852e-10,12.507,0.12323,-5.8941e-06,1,272,272,0,0
0.020118,-1.6018e-08,7.9175e-05,-2.3052e-05,-1.5595e-10,12.507,0.11989,-4.9495e-06,1,273,273,0,0
0.020197,-1.6761e-08,7.9178e-05,-2.3072e-05,-1.2669e-10,12.506,0.11654,-4.0049e-06,1,274,274,0,0
0.020276,-1.7505e-08,7.9182e-05,-2.3092e-05,-9.744e-11,12.506,0.11319,-3.0603e-06,1,275,275,0,0
0.020356,-1.8248e-08,7.9185e-05,-2.3112e-05,-6.8186e-11,12.505,0.10985,-2.1156e-06,1,276,276,0,0
0.020435,-1.8992e-08,7.9188e-05,-2.3133e-05,-3.8933e-11,12.505,0.1065,-1.171e-06,1,277,277,0,0
0.020514,-1.9735e-08,7.9191e-05,-2.3153e-05,-9.6791e-12,12.504,0.10315,-2.2637e-07,1,278,278,0,0
0.020593,-2.0479e-08,7.9194e-05,-2.3173e-05,1.9574e-11,12.504,0.099806,7.1826e-07,1,279,279,0,0
0.020672,-2.1222e-08,7.9197e-05,-2.3194e-05,4.8828e-11,12.503,0.096459,1.6629e-06,1,280,280,0,0
0.020752,-2.1877e-08,7.9198e-05,-2.3211e-05,4.8088e-11,12.503,0.093522,1.6384e-06,1,281,281,0,0
0.020831,-2.2533e-08,7.9199e-05,-2.3229e-05,4.7348e-11,12.502,0.090584,1.6139e-06,1,282,282,0,0
0.02091,-2.3188e-08,7.9201e-05,-2.3246e-05,4.6608e-11,12.501,0.087646,1.5893e-06,1,283,283,0,0
0.020989,-2.3843e-08,7.9202e-05,-2.3263e-05,4.5868e-11,12.501,0.084709,1.5648e-06,1,284,284,0,0
0.021068,-2.4499e-08,7.9204e-05,-2.3281e-05,4.5128e-11,12.5,0.081771,1.5403e-06,1,285,285,0,0
0.021148,-2.5154e-08,7.9205e-05,-2.3298e-05,4.4388e-11,12.499,0.078834,1.5158e-06,1,286,286,0,0
0.021227,-2.5809e-08,7.9206e-05,-2.3316e-05,4.3648e-11,12.499,0.075896,1.4912e-06,1,287,287,0,0
0.021306,-2.6465e-08,7.9208e-05,-2.3333e-05,4.2909e-11,12.498,0.072958,1.4667e-06,1,288,288,0,0
0.021385,-2.712e-08,7.9209e-05,-2.3351e-05,4.2169e-11,12.497,0.070021,1.4422e-06,1,289,289,0,0
0.021464,-2.7775e-08,7.9211e-05,-2.3368e-05,4.1429e-11,12.496,0.067083,1.4177e-06,1,290,290,0,0
0.021544,-2.8086e-08,7.9211e-05,-2.3383e-05,4.732e-11,12.496,0.064519,1.6073e-06,1,291,291,0,0
0.021623,-2.8397e-08,7.9211e-05,-2.3398e-05,5.3212e-11,12.495,0.061955,1.7969e-06,1,292,292,0,0
0.021702,-2.8709e-08,7.9211e-05,-2.3413e-05,5.9104e-11,12.494,0.059391,1.9866e-06,1,293,293,0,0
0.021781,-2.902e-08,7.9211e-05,-2.3427e-05,6.4995e-11,12.493,0.056827,2.1762e-06,1,294,294,0,0
0.021861,-2.9331e-08,7.9211e-05,-2.3442e-05,7.0887e-11,12.493,0.054263,2.3658e-06,1,295,295,0,0
0.02194,-2.9642e-08,7.9211e-05,-2.3457e-05,7.6778e-11,12.492,0.051699,2.5555e-06,1,296,296,0,0
0.022019,-2.9953e-08,7.9211e-05,-2.3472e-05,8.267e-11,12.491,0.049135,2.7451e-06,1,297,297,0,0
0.022098,-3.0264e-08,7.9211e-05,-2.3487e-05,8.8562e-11,12.49,0.046571,2.9347e-06,1,298,298,0,0
0.022177,-3.0575e-08,7.9211e-05,-2.3502e-05,9.4453e-11,12.489,0.044006,3.1243e-06,1,299,299,0,0
0.022257,-3.0886e-08,7.9211e-05,-2.3517e-05,1.0035e-10,12.489,0.041442,3.314e-06,1,300,300,0,0
0.022336,-3.1217e-08,7.921e-05,-2.3529e-05,8.6635e-11,12.488,0.039215,2.8702e-06,1,301,301,0,0
0.022415,-3.1548e-08,7.9209e-05,-2.3542e-05,7.2925e-11,12.487,0.036988,2.4265e-06,1,302,302,0,0
0.022494,-3.1879e-08,7.9208e-05,-2.3554e-05,5.9216e-11,12.486,0.03476,1.9827e-06,1,303,303,0,0
0.022573,-3.221e-08,7.9207e-05,-2.3567e-05,4.5506e-11,12.485,0.032533,1.539e-06,1,304,304,0,0
0.022653,-3.2541e-08,7.9206e-05,-2.358e-05,3.1796e-11,12.485,0.030305,1.0952e-06,1,305,305,0,0
0.022732,-3.2872e-08,7.9204e-05,-2.3592e-05,1.8086e-11,12.484,0.028078,6.5145e-07,1,306,306,0,0
0.022811,-3.3203e-08,7.9203e-05,-2.3605e-05,4.3763e-12,12.483,0.025851,2.077e-07,1,307,307,0,0
0.02289,-3.3534e-08,7.9202e-05,-2.3617e-05,-9.3335e-12,12.482,0.023623,-2.3606e-07,1,308,308,0,0
0.022969,-3.3865e-08,7.9201e-05,-2.363e-05,-2.3043e-11,12.481,0.021396,-6.7981e-07,1,309,309,0,0
0.023049,-3.4196e-08,7.92e-05,-2.3642e-05,-3.6753e-11,12.48,0.019169,-1.1236e-06,1,310,310,0,0
0.023128,-3.4589e-08,7.9198e-05,-2.3653e-05,-5.3322e-11,12.479,0.017245,-1.6598e-06,1,311,311,0,0
0.023207,-3.4982e-08,7.9196e-05,-2.3664e-05,-6.9892e-11,12.478,0.015322,-2.1961e-06,1,312,312,0,0
0.023286,-3.5375e-08,7.9194e-05,-2.3674e-05,-8.6461e-11,12.478,0.013399,-2.7324e-06,1,313,313,0,0
0.023365,-3.5768e-08,7.9192e-05,-2.3685e-05,-1.0303e-10,12.477,0.011476,-3.2686e-06,1,314,314,0,0
0.023445,-3.6162e-08,7.919e-05,-2.3695e-05,-1.196e-10,12.476,0.0095528,-3.8049e-06,1,315,315,0,0
0.023524,-3.6555e-08,7.9188e-05,-2.3706e-05,-1.3617e-10,12.475,0.0076296,-4.3412e-06,1,316,316,0,0
0.023603,-3.6948e-08,7.9186e-05,-2.3716e-05,-1.5274e-10,12.474,0.0057065,-4.8775e-06,1,317,317,0,0
0.023682,-3.7341e-08,7.9185e-05,-2.3727e-05,-1.6931e-10,12.473,0.0037833,-5.4137e-06,1,318,318,0,0
0.023761,-3.7734e-08,7.9183e-05,-2.3738e-05,-1.8588e-10,12.472,0.0018601,-5.95e-06,1,319,319,0,0
0.023841,-3.8127e-08,7.9181e-05,-2.3748e-05,-2.0245e-10,12.471,-6.3013e-05,-6.4863e-06,1,320,320,0,0
0.02392,-3.8785e-08,7.9178e-05,-2.3757e-05,-1.8705e-10,12.47,-0.0017076,-5.9898e-06,1,321,321,0,0
0.023999,-3.9443e-08,7.9175e-05,-2.3766e-05,-1.7165e-10,12.469,-0.0033523,-5.4933e-06,1,322,322,0,0
0.024078,-4.0101e-08,7.9172e-05,-2.3774e-05,-1.5625e-10,12.469,-0.0049969,-4.9967e-06,1,323,323,0,0
0.024157,-4.0759e-08,7.917e-05,-2.3783e-05,-1.4085e-10,12.468,-0.0066415,-4.5002e-06,1,324,324,0,0
0.024236,-4.1417e-08,7.9167e-05,-2.3792e-05,-1.2545e-10,12.467,-0.0082861,-4.0037e-06,1,325,325,0,0
0.024316,-4.2075e-08,7.9164e-05,-2.3801e-05,-1.1005e-10,12.466,-0.0099307,-3.5072e-06,1,326,326,0,0
0.024395,-4.2733e-08,7.9162e-05,-2.3809e-05,-9.4653e-11,12.465,-0.011575,-3.0107e-06,1,327,327,0,0
0.024474,-4.3391e-08,7.9159e-05,-2.3818e-05,-7.9254e-11,12.464,-0.01322,-2.5142e-06,1,328,328,0,0
0.024553,-4.4049e-08,7.9156e-05,-2.3827e-05,-6.3855e-11,12.463,-0.014865,-2.0177e-06,1,329,329,0,0
0.024632,-4.4707e-08,7.9154e-05,-2.3835e-05,-4.8456e-11,12.462,-0.016509,-1.5212e-06,1,330,330,0,0
0.024711,-4.5124e-08,7.915e-05,-2.3843e-05,-6.364e-11,12.461,-0.017903,-2.0127e-06,1,331,331,0,0
0.024791,-4.5542e-08,7.9147e-05,-2.385e-05,-7.8824e-11,12.46,-0.019298,-2.5043e-06,1,332,332,0,0
0.02487,-4.5959e-08,7.9143e-05,-2.3857e-05,-9.4007e-11,12.459,-0.020692,-2.9958e-06,1,333,333,0,0
0.024949,-4.6376e-08,7.914e-05,-2.3864e-05,-1.0919e-10,12.458,-0.022086,-3.4874e-06,1,334,334,0,0
0.025028,-4.6794e-08,7.9137e-05,-2.3871e-05,-1.2437e-10,12.457,-0.02348,-3.9789e-06,1,335,335,0,0
0.025107,-4.7211e-08,7.9133e-05,-2.3878e-05,-1.3956e-10,12.456,-0.024875,-4.4705e-06,1,336,336,0,0
0.025186,-4.7629e-08,7.913e-05,-2.3885e-05,-1.5474e-10,12.455,-0.026269,-4.962e-06,1,337,337,0,0
0.025265,-4.8046e-08,7.9127e-05,-2.3892e-05,-1.6993e-10,12.454,-0.027663,-5.4536e-06,1,338,338,0,0
0.025344,-4.8463e-08,7.9123e-05,-2.3899e-05,-1.8511e-10,12.453,-0.029057,-5.9451e-06,1,339,339,0,0
0.025424,-4.8881e-08,7.912e-05,-2.3906e-05,-2.0029e-10,12.453,-0.030452,-6.4367e-06,1,340,340,0,0
0.025503,-4.9159e-08,7.9116e-05,-2.3912e-05,-1.7538e-10,12.452,-0.031633,-5.6328e-06,1,341,341,0,0
0.025582,-4.9437e-08,7.9112e-05,-2.3918e-05,-1.5046e-10,12.451,-0.032814,-4.8289e-06,1,342,342,0,0
0.025661,-4.9715e-08,7.9109e-05,-2.3924e-05,-1.2555e-10,12.45,-0.033996,-4.025e-06,1,343,343,0,0
0.02574,-4.9992e-08,7.9105e-05,-2.3929e-05,-1.0063e-10,12.449,-0.035177,-3.2211e-06,1,344,344,0,0
0.025819,-5.027e-08,7.9101e-05,-2.3935e-05,-7.5717e-11,12.448,-0.036358,-2.4171e-06,1,345,345,0,0
0.025898,-5.0548e-08,7.9097e-05,-2.3941e-05,-5.0802e-11,12.447,-0.037539,-1.6132e-06,1,346,346,0,0
0.025977,-5.0826e-08,7.9093e-05,-2.3946e-05,-2.5887e-11,12.446,-0.038721,-8.0933e-07,1,347,347,0,0
0.026056,-5.1104e-08,7.9089e-05,-2.3952e-05,-9.7212e-13,12.445,-0.039902,-5.426e-09,1,348,348,0,0
0.026136,-5.1382e-08,7.9086e-05,-2.3958e-05,2.3943e-11,12.444,-0.041083,7.9848e-07,1,349,349,0,0
0.026215,-5.166e-08,7.9082e-05,-2.3964e-05,4.8858e-11,12.443,-0.042265,1.6024e-06,1,350,350,0,0
0.026294,-5.2286e-08,7.9077e-05,-2.3968e-05,3.8268e-11,12.442,-0.043254,1.2593e-06,1,351,351,0,0
0.026373,-5.2913e-08,7.9073e-05,-2.3973e-05,2.7678e-11,12.441,-0.044244,9.163e-07,1,352,352,0,0
0.026452,-5.3539e-08,7.9069e-05,-2.3977e-05,1.7087e-11,12.44,-0.045233,5.7325e-07,1,353,353,0,0
0.026531,-5.4166e-08,7.9065e-05,-2.3982e-05,6.4971e-12,12.439,-0.046222,2.302e-07,1,354,354,0,0
0.02661,-5.4792e-08,7.906e-05,-2.3986e-05,-4.0932e-12,12.438,-0.047212,-1.1284e-07,1,355,355,0,0
0.026689,-5.5418e-08,7.9056e-05,-2.399e-05,-1.4683e-11,12.437,-0.048201,-4.5589e-07,1,356,356,0,0
0.026768,-5.6045e-08,7.9052e-05,-2.3995e-05,-2.5274e-11,12.436,-0.049191,-7.9894e-07,1,357,357,0,0
0.026847,-5.6671e-08,7.9048e-05,-2.3999e-05,-3.5864e-11,12.435,-0.05018,-1.142e-06,1,358,358,0,0
0.026926,-5.7298e-08,7.9043e-05,-2.4004e-05,-4.6454e-11,12.434,-0.05117,-1.485e-06,1,359,359,0,0
0.027005,-5.7924e-08,7.9039e-05,-2.4008e-05,-5.7044e-11,12.433,-0.052159,-1.8281e-06,1,360,360,0,0
0.027084,-5.8484e-08,7.9035e-05,-2.4012e-05,-6.7454e-11,12.432,-0.052977,-2.165e-06,1,361,361,0,0
0.027163,-5.9044e-08,7.903e-05,-2.4015e-05,-7.7863e-11,12.431,-0.053795,-2.5019e-06,1,362,362,0,0
0.027242,-5.9604e-08,7.9026e-05,-2.4019e-05,-8.8273e-11,12.43,-0.054613,-2.8387e-06,1,363,363,0,0
0.027321,-6.0164e-08,7.9021e-05,-2.4022e-05,-9.8682e-11,12.429,-0.055431,-3.1756e-06,1,364,364,0,0
0.0274,-6.0724e-08,7.9017e-05,-2.4025e-05,-1.0909e-10,12.428,-0.056249,-3.5125e-06,1,365,365,0,0
0.027479,-6.1284e-08,7.9012e-05,-2.4029e-05,-1.195e-10,12.427,-0.057067,-3.8494e-06,1,366,366,0,0
0.027558,-6.1844e-08,7.9008e-05,-2.4032e-05,-1.2991e-10,12.426,-0.057885,-4.1863e-06,1,367,367,0,0
0.027637,-6.2404e-08,7.9003e-05,-2.4036e-05,-1.4032e-10,12.425,-0.058703,-4.5232e-06,1,368,368,0,0
0.027716,-6.2964e-08,7.8999e-05,-2.4039e-05,-1.5073e-10,12.424,-0.059521,-4.8601e-06,1,369,369,0,0
0.027795,-6.3524e-08,7.8994e-05,-2.4042e-05,-1.6114e-10,12.424,-0.060339,-5.197e-06,1,370,370,0,0
0.027874,-6.4146e-08,7.899e-05,-2.4045e-05,-1.5008e-10,12.423,-0.061011,-4.84e-06,1,371,371,0,0
0.027953,-6.4768e-08,7.8985e-05,-2.4048e-05,-1.3902e-10,12.422,-0.061683,-4.4831e-06,1,372,372,0,0
0.028032,-6.539e-08,7.898e-05,-2.405e-05,-1.2796e-10,12.421,-0.062355,-4.1261e-06,1,373,373,0,0
0.028111,-6.6012e-08,7.8976e-05,-2.4053e-05,-1.169e-10,12.42,-0.063027,-3.7692e-06,1,374,374,0,0
0.02819,-6.6634e-08,7.8971e-05,-2.4055e-05,-1.0584e-10,12.419,-0.063699,-3.4122e-06,1,375,375,0,0
0.028269,-6.7256e-08,7.8967e-05,-2.4058e-05,-9.4776e-11,12.418,-0.064371,-3.0552e-06,1,376,376,0,0
0.028348,-6.7878e-08,7.8962e-05,-2.406e-05,-8.3715e-11,12.417,-0.065043,-2.6983e-06,1,377,377,0,0
0.028427,-6.85e-08,7.8957e-05,-2.4063e-05,-7.2655e-11,12.416,-0.065715,-2.3413e-06,1,378,378,0,0
0.028506,-6.9122e-08,7.8953e-05,-2.4065e-05,-6.1595e-11,12.415,-0.066387,-1.9844e-06,1,379,379,0,0
0.028585,-6.9744e-08,7.8948e-05,-2.4068e-05,-5.0534e-11,12.414,-0.067058,-1.6274e-06,1,380,380,0,0
0.028664,-7.0403e-08,7.8943e-05,-2.407e-05,-4.9117e-11,12.413,-0.067597,-1.5819e-06,1,381,381,0,0
0.028743,-7.1062e-08,7.8939e-05,-2.4071e-05,-4.7699e-11,12.412,-0.068136,-1.5363e-06,1,382,382,0,0
0.028822,-7.1721e-08,7.8934e-05,-2.4073e-05,-4.6282e-11,12.411,-0.068674,-1.4907e-06,1,383,383,0,0
0.028901,-7.238e-08,7.8929e-05,-2.4075e-05,-4.4865e-11,12.41,-0.069213,-1.4452e-06,1,384,384,0,0
0.02898,-7.3039e-08,7.8924e-05,-2.4076e-05,-4.3447e-11,12.409,-0.069751,-1.3996e-06,1,385,385,0,0
0.029059,-7.3698e-08,7.8919e-05,-2.4078e-05,-4.203e-11,12.409,-0.07029,-1.354e-06,1,386,386,0,0
0.029138,-7.4357e-08,7.8915e-05,-2.408e-05,-4.0612e-11,12.408,-0.070828,-1.3085e-06,1,387,387,0,0
0.029217,-7.5016e-08,7.891e-05,-2.4081e-05,-3.9195e-11,12.407,-0.071367,-1.2629e-06,1,388,388,0,0
0.029295,-7.5675e-08,7.8905e-05,-2.4083e-05,-3.7778e-11,12.406,-0.071905,-1.2174e-06,1,389,389,0,0
0.029374,-7.6334e-08,7.89e-05,-2.4085e-05,-3.636e-11,12.405,-0.072444,-1.1718e-06,1,390,390,0,0
0.029453,-7.6637e-08,7.8895e-05,-2.4086e-05,-5.3064e-11,12.404,-0.07287,-1.7114e-06,1,391,391,0,0
0.029532,-7.694e-08,7.8891e-05,-2.4087e-05,-6.9769e-11,12.403,-0.073296,-2.2511e-06,1,392,392,0,0
0.029611,-7.7243e-08,7.8886e-05,-2.4088e-05,-8.6473e-11,12.402,-0.073722,-2.7907e-06,1,393,393,0,0
0.02969,-7.7546e-08,7.8881e-05,-2.4089e-05,-1.0318e-10,12.401,-0.074148,-3.3304e-06,1,394,394,0,0
0.029769,-7.7848e-08,7.8876e-05,-2.409e-05,-1.1988e-10,12.4,-0.074574,-3.87e-06,1,395,395,0,0
0.029848,-7.8151e-08,7.8871e-05,-2.4091e-05,-1.3659e-10,12.4,-0.075001,-4.4097e-06,1,396,396,0,0
0.029927,-7.8454e-08,7.8866e-05,-2.4092e-05,-1.5329e-10,12.399,-0.075427,-4.9493e-06,1,397,397,0,0
0.030005,-7.8757e-08,7.8862e-05,-2.4093e-05,-1.7e-10,12.398,-0.075853,-5.489e-06,1,398,398,0,0
0.030084,-7.906e-08,7.8857e-05,-2.4094e-05,-1.867e-10,12.397,-0.076279,-6.0286e-06,1,399,399,0,0
0.030163,-7.9363e-08,7.8852e-05,-2.4095e-05,-2.034e-10,12.396,-0.076705,-6.5682e-06,1,400,400,0,0
0.030242,-7.9853e-08,7.8847e-05,-2.4096e-05,-1.8715e-10,12.395,-0.077044,-6.043e-06,1,401,401,0,0
0.030321,-8.0344e-08,7.8842e-05,-2.4096e-05,-1.7089e-10,12.394,-0.077382,-5.5177e-06,1,402,402,0,0
0.0304,-8.0835e-08,7.8837e-05,-2.4097e-05,-1.5463e-10,12.393,-0.077721,-4.9924e-06,1,403,403,0,0
0.030478,-8.1325e-08,7.8832e-05,-2.4097e-05,-1.3837e-10,12.392,-0.07806,-4.4671e-06,1,404,404,0,0
0.030557,-8.1816e-08,7.8828e-05,-2.4098e-05,-1.2211e-10,12.392,-0.078399,-3.9418e-06,1,405,405,0,0
0.030636,-8.2307e-08,7.8823e-05,-2.4099e-05,-1.0585e-10,12.391,-0.078737,-3.4165e-06,1,406,406,0,0
0.030715,-8.2797e-08,7.8818e-05,-2.4099e-05,-8.9594e-11,12.39,-0.079076,-2.8912e-06,1,407,407,0,0
0.030794,-8.3288e-08,7.8813e-05,-2.41e-05,-7.3335e-11,12.389,-0.079415,-2.3659e-06,1,408,408,0,0
0.030873,-8.3779e-08,7.8808e-05,-2.41e-05,-5.7077e-11,12.388,-0.079754,-1.8406e-06,1,409,409,0,0
0.030951,-8.4269e-08,7.8803e-05,-2.4101e-05,-4.0818e-11,12.387,-0.080092,-1.3153e-06,1,410,410,0,0
0.03103,-8.5139e-08,7.8798e-05,-2.4101e-05,-3.2773e-11,12.386,-0.080348,-1.0554e-06,1,411,411,0,0
0.031109,-8.6009e-08,7.8794e-05,-2.4101e-05,-2.4728e-11,12.386,-0.080603,-7.9544e-07,1,412,412,0,0
0.031188,-8.6878e-08,7.8789e-05,-2.4101e-05,-1.6683e-11,12.385,-0.080858,-5.3548e-07,1,413,413,0,0
0.031267,-8.7748e-08,7.8784e-05,-2.4101e-05,-8.6377e-12,12.384,-0.081113,-2.7553e-07,1,414,414,0,0
0.031345,-8.8618e-08,7.8779e-05,-2.4101e-05,-5.926e-13,12.383,-0.081368,-1.558e-08,1,415,415,0,0
0.031424,-8.9487e-08,7.8774e-05,-2.4101e-05,7.4525e-12,12.382,-0.081623,2.4437e-07,1,416,416,0,0
0.031503,-9.0357e-08,7.877e-05,-2.4101e-05,1.5498e-11,12.381,-0.081878,5.0432e-07,1,417,417,0,0
0.031582,-9.1227e-08,7.8765e-05,-2.4101e-05,2.3543e-11,12.38,-0.082134,7.6428e-07,1,418,418,0,0
0.03166,-9.2096e-08,7.876e-05,-2.4101e-05,3.1588e-11,12.38,-0.082389,1.0242e-06,1,419,419,0,0
0.031739,-9.2966e-08,7.8755e-05,-2.4101e-05,3.9633e-11,12.379,-0.082644,1.2842e-06,1,420,420,0,0
0.031818,-9.4113e-08,7.8751e-05,-2.4101e-05,7.5522e-11,12.378,-0.082821,2.4436e-06,1,421,421,0,0
0.031897,-9.526e-08,7.8746e-05,-2.4101e-05,1.1141e-10,12.377,-0.082998,3.603e-06,1,422,422,0,0
0.031975,-9.6407e-08,7.8742e-05,-2.41e-05,1.473e-10,12.376,-0.083175,4.7625e-06,1,423,423,0,0
0.032054,-9.7554e-08,7.8737e-05,-2.41e-05,1.8319e-10,12.376,-0.083352,5.9219e-06,1,424,424,0,0
0.032133,-9.8701e-08,7.8733e-05,-2.41e-05,2.1908e-10,12.375,-0.08353,7.0813e-06,1,425,425,0,0
0.032212,-9.9848e-08,7.8728e-05,-2.4099e-05,2.5497e-10,12.374,-0.083707,8.2408e-06,1,426,426,0,0
0.03229,-1.0099e-07,7.8724e-05,-2.4099e-05,2.9086e-10,12.373,-0.083884,9.4002e-06,1,427,427,0,0
0.032369,-1.0214e-07,7.8719e-05,-2.4099e-05,3.2675e-10,12.373,-0.084061,1.056e-05,1,428,428,0,0
0.032448,-1.0329e-07,7.8715e-05,-2.4098e-05,3.6263e-10,12.372,-0.084238,1.1719e-05,1,429,429,0,0
0.032526,-1.0444e-07,7.871e-05,-2.4098e-05,3.9852e-10,12.371,-0.084415,1.2879e-05,1,430,430,0,0
0.032605,-1.0554e-07,7.8706e-05,-2.4098e-05,3.9563e-10,12.37,-0.084537,1.2785e-05,1,431,431,0,0
0.032684,-1.0665e-07,7.8702e-05,-2.4097e-05,3.9274e-10,12.37,-0.084658,1.2692e-05,1,432,432,0,0
0.032763,-1.0776e-07,7.8697e-05,-2.4096e-05,3.8985e-10,12.369,-0.08478,1.2598e-05,1,433,433,0,0
0.032841,-1.0886e-07,7.8693e-05,-2.4096e-05,3.8695e-10,12.368,-0.084901,1.2505e-05,1,434,434,0,0
0.03292,-1.0997e-07,7.8689e-05,-2.4095e-05,3.8406e-10,12.367,-0.085022,1.2411e-05,1,435,435,0,0
0.032999,-1.1108e-07,7.8684e-05,-2.4095e-05,3.8117e-10,12.367,-0.085144,1.2318e-05,1,436,436,0,0
0.033077,-1.1218e-07,7.868e-05,-2.4094e-05,3.7828e-10,12.366,-0.085265,1.2224e-05,1,437,437,0,0
0.033156,-1.1329e-07,7.8676e-05,-2.4094e-05,3.7538e-10,12.365,-0.085387,1.2131e-05,1,438,438,0,0
0.033235,-1.144e-07,7.8671e-05,-2.4093e-05,3.7249e-10,12.365,-0.085508,1.2037e-05,1,439,439,0,0
0.033313,-1.1551e-07,7.8667e-05,-2.4092e-05,3.696e-10,12.364,-0.085629,1.1944e-05,1,440,440,0,0
0.033392,-1.1635e-07,7.8663e-05,-2.4092e-05,3.8175e-10,12.363,-0.085712,1.2336e-05,1,441,441,0,0
0.033471,-1.172e-07,7.8658e-05,-2.4091e-05,3.939e-10,12.363,-0.085794,1.2729e-05,1,442,442,0,0
0.033549,-1.1804e-07,7.8654e-05,-2.409e-05,4.0606e-10,12.362,-0.085876,1.3122e-05,1,443,443,0,0
0.033628,-1.1889e-07,7.865e-05,-2.4089e-05,4.1821e-10,12.361,-0.085959,1.3514e-05,1,444,444,0,0
0.033707,-1.1973e-07,7.8646e-05,-2.4088e-05,4.3036e-10,12.36,-0.086041,1.3907e-05,1,445,445,0,0
0.033785,-1.2058e-07,7.8641e-05,-2.4088e-05,4.4251e-10,12.36,-0.086124,1.43e-05,1,446,446,0,0
0.033864,-1.2142e-07,7.8637e-05,-2.4087e-05,4.5466e-10,12.359,-0.086206,1.4692e-05,1,447,447,0,0
0.033943,-1.2227e-07,7.8633e-05,-2.4086e-05,4.6682e-10,12.358,-0.086288,1.5085e-05,1,448,448,0,0
0.034021,-1.2311e-07,7.8628e-05,-2.4085e-05,4.7897e-10,12.358,-0.086371,1.5478e-05,1,449,449,0,0
0.0341,-1.2396e-07,7.8624e-05,-2.4084e-05,4.9112e-10,12.357,-0.086453,1.587e-05,1,450,450,0,0
0.034179,-1.2454e-07,7.862e-05,-2.4084e-05,4.4711e-10,12.356,-0.086493,1.4449e-05,1,451,451,0,0
0.034257,-1.2512e-07,7.8616e-05,-2.4083e-05,4.0309e-10,12.356,-0.086533,1.3027e-05,1,452,452,0,0
0.034336,-1.2571e-07,7.8612e-05,-2.4082e-05,3.5908e-10,12.355,-0.086573,1.1605e-05,1,453,453,0,0
0.034414,-1.2629e-07,7.8608e-05,-2.4081e-05,3.1507e-10,12.354,-0.086613,1.0184e-05,1,454,454,0,0
0.034493,-1.2687e-07,7.8604e-05,-2.408e-05,2.7105e-10,12.354,-0.086653,8.7621e-06,1,455,455,0,0
0.034571,-1.2745e-07,7.86e-05,-2.4079e-05,2.2704e-10,12.353,-0.086694,7.3405e-06,1,456,456,0,0
0.03465,-1.2803e-07,7.8596e-05,-2.4078e-05,1.8303e-10,12.352,-0.086734,5.9189e-06,1,457,457,0,0
0.034729,-1.2861e-07,7.8592e-05,-2.4077e-05,1.3901e-10,12.352,-0.086774,4.4972e-06,1,458,458,0,0
0.034807,-1.292e-07,7.8588e-05,-2.4076e-05,9.4999e-11,12.351,-0.086814,3.0756e-06,1,459,459,0,0
0.034886,-1.2978e-07,7.8584e-05,-2.4075e-05,5.0986e-11,12.35,-0.086854,1.654e-06,1,460,460,0,0
0.034964,-1.301e-07,7.858e-05,-2.4074e-05,3.2812e-11,12.35,-0.086863,1.0672e-06,1,461,461,0,0
0.035043,-1.3042e-07,7.8577e-05,-2.4073e-05,1.4638e-11,12.349,-0.086872,4.8046e-07,1,462,462,0,0
0.035122,-1.3073e-07,7.8573e-05,-2.4072e-05,-3.5363e-12,12.349,-0.086881,-1.0629e-07,1,463,463,0,0
0.0352,-1.3105e-07,7.8569e-05,-2.4071e-05,-2.171e-11,12.348,-0.086891,-6.9304e-07,1,464,464,0,0
0.035279,-1.3137e-07,7.8565e-05,-2.407e-05,-3.9885e-11,12.347,-0.0869,-1.2798e-06,1,465,465,0,0
0.035357,-1.3169e-07,7.8562e-05,-2.4069e-05,-5.8059e-11,12.347,-0.086909,-1.8665e-06,1,466,466,0,0
0.035436,-1.3201e-07,7.8558e-05,-2.4068e-05,-7.6233e-11,12.346,-0.086918,-2.4533e-06,1,467,467,0,0
0.035514,-1.3233e-07,7.8554e-05,-2.4067e-05,-9.4407e-11,12.346,-0.086927,-3.04e-06,1,468,468,0,0
0.035593,-1.3265e-07,7.8551e-05,-2.4066e-05,-1.1258e-10,12.345,-0.086936,-3.6268e-06,1,469,469,0,0
0.035672,-1.3297e-07,7.8547e-05,-2.4065e-05,-1.3076e-10,12.345,-0.086945,-4.2135e-06,1,470,470,0,0
0.03575,-1.3331e-07,7.8544e-05,-2.4064e-05,-1.4795e-10,12.344,-0.086946,-4.7685e-06,1,471,471,0,0
0.035829,-1.3365e-07,7.854e-05,-2.4063e-05,-1.6514e-10,12.343,-0.086947,-5.3235e-06,1,472,472,0,0
0.035907,-1.3399e-07,7.8537e-05,-2.4062e-05,-1.8233e-10,12.343,-0.086948,-5.8785e-06,1,473,473,0,0
0.035986,-1.3433e-07,7.8533e-05,-2.4061e-05,-1.9952e-10,12.342,-0.086949,-6.4334e-06,1,474,474,0,0
0.036064,-1.3467e-07,7.853e-05,-2.406e-05,-2.1671e-10,12.342,-0.08695,-6.9884e-06,1,475,475,0,0
0.036143,-1.3501e-07,7.8527e-05,-2.4059e-05,-2.339e-10,12.341,-0.086951,-7.5434e-06,1,476,476,0,0
0.036221,-1.3535e-07,7.8523e-05,-2.4058e-05,-2.511e-10,12.341,-0.086952,-8.0983e-06,1,477,477,0,0
0.0363,-1.3569e-07,7.852e-05,-2.4057e-05,-2.6829e-10,12.34,-0.086953,-8.6533e-06,1,478,478,0,0
0.036378,-1.3603e-07,7.8517e-05,-2.4056e-05,-2.8548e-10,12.34,-0.086954,-9.2083e-06,1,479,479,0,0
0.036457,-1.3637e-07,7.8513e-05,-2.4055e-05,-3.0267e-10,12.339,-0.086955,-9.7633e-06,1,480,480,0,0
0.036535,-1.368e-07,7.851e-05,-2.4054e-05,-2.9226e-10,12.339,-0.086937,-9.4265e-06,1,481,481,0,0
0.036614,-1.3722e-07,7.8507e-05,-2.4053e-05,-2.8184e-10,12.338,-0.086919,-9.0897e-06,1,482,482,0,0
0.036692,-1.3765e-07,7.8504e-05,-2.4052e-05,-2.7143e-10,12.338,-0.086901,-8.7529e-06,1,483,483,0,0
0.036771,-1.3808e-07,7.8501e-05,-2.4051e-05,-2.6101e-10,12.337,-0.086883,-8.4161e-06,1,484,484,0,0
0.036849,-1.385e-07,7.8498e-05,-2.405e-05,-2.506e-10,12.337,-0.086865,-8.0793e-06,1,485,485,0,0
0.036928,-1.3893e-07,7.8494e-05,-2.4048e-05,-2.4018e-10,12.336,-0.086847,-7.7425e-06,1,486,486,0,0
0.037006,-1.3936e-07,7.8491e-05,-2.4047e-05,-2.2977e-10,12.336,-0.086829,-7.4057e-06,1,487,487,0,0
0.037085,-1.3978e-07,7.8488e-05,-2.4046e-05,-2.1935e-10,12.335,-0.086811,-7.0689e-06,1,488,488,0,0
0.037163,-1.4021e-07,7.8485e-05,-2.4045e-05,-2.0894e-10,12.335,-0.086793,-6.7321e-06,1,489,489,0,0
0.037242,-1.4064e-07,7.8482e-05,-2.4044e-05,-1.9852e-10,12.334,-0.086775,-6.3953e-06,1,490,490,0,0
0.03732,-1.4137e-07,7.8479e-05,-2.4043e-05,-1.8458e-10,12.334,-0.086742,-5.9449e-06,1,491,491,0,0
0.037399,-1.421e-07,7.8476e-05,-2.4042e-05,-1.7064e-10,12.333,-0.086709,-5.4944e-06,1,492,492,0,0
0.037477,-1.4283e-07,7.8473e-05,-2.4041e-05,-1.567e-10,12.333,-0.086676,-5.0439e-06,1,493,493,0,0
0.037556,-1.4356e-07,7.847e-05,-2.404e-05,-1.4276e-10,12.332,-0.086643,-4.5934e-06,1,494,494,0,0
0.037634,-1.4429e-07,7.8468e-05,-2.4039e-05,-1.2882e-10,12.332,-0.08661,-4.1429e-06,1,495,495,0,0
0.037713,-1.4502e-07,7.8465e-05,-2.4038e-05,-1.1488e-10,12.332,-0.086577,-3.6924e-06,1,496,496,0,0
0.037791,-1.4575e-07,7.8462e-05,-2.4037e-05,-1.0094e-10,12.331,-0.086544,-3.2419e-06,1,497,497,0,0
0.03787,-1.4648e-07,7.8459e-05,-2.4036e-05,-8.6997e-11,12.331,-0.086511,-2.7914e-06,1,498,498,0,0
0.037948,-1.4721e-07,7.8456e-05,-2.4035e-05,-7.3056e-11,12.33,-0.086478,-2.3409e-06,1,499,499,0,0
0.038026,-1.4794e-07,7.8453e-05,-2.4034e-05,-5.9115e-11,12.33,-0.086444,-1.8904e-06,1,500,500,0,0
0.038105,-1.4868e-07,7.8451e-05,-2.4033e-05,-5.5095e-11,12.329,-0.08642,-1.7604e-06,1,501,501,0,0
0.038183,-1.4943e-07,7.8448e-05,-2.4032e-05,-5.1076e-11,12.329,-0.086396,-1.6305e-06,1,502,502,0,0
0.038262,-1.5017e-07,7.8446e-05,-2.4031e-05,-4.7056e-11,12.329,-0.086372,-1.5005e-06,1,503,503,0,0
0.03834,-1.5092e-07,7.8443e-05,-2.403e-05,-4.3036e-11,12.328,-0.086347,-1.3706e-06,1,504,504,0,0
0.038419,-1.5166e-07,7.8441e-05,-2.403e-05,-3.9016e-11,12.328,-0.086323,-1.2407e-06,1,505,505,0,0
0.038497,-1.5241e-07,7.8438e-05,-2.4029e-05,-3.4996e-11,12.327,-0.086299,-1.1107e-06,1,506,506,0,0
0.038576,-1.5315e-07,7.8436e-05,-2.4028e-05,-3.0976e-11,12.327,-0.086274,-9.808e-07,1,507,507,0,0
0.038654,-1.539e-07,7.8433e-05,-2.4027e-05,-2.6957e-11,12.327,-0.08625,-8.5086e-07,1,508,508,0,0
0.038732,-1.5464e-07,7.8431e-05,-2.4026e-05,-2.2937e-11,12.326,-0.086226,-7.2092e-07,1,509,509,0,0
0.038811,-1.5539e-07,7.8428e-05,-2.4025e-05,-1.8917e-11,12.326,-0.086201,-5.9099e-07,1,510,510,0,0
0.038889,-1.5602e-07,7.8426e-05,-2.4024e-05,-1.0709e-11,12.326,-0.086173,-3.2587e-07,1,511,511,0,0
0.038968,-1.5665e-07,7.8424e-05,-2.4024e-05,-2.501e-12,12.325,-0.086144,-6.076e-08,1,512,512,0,0
0.039046,-1.5729e-07,7.8422e-05,-2.4023e-05,5.707e-12,12.325,-0.086115,2.0435e-07,1,513,513,0,0
0.039125,-1.5792e-07,7.842e-05,-2.4022e-05,1.3915e-11,12.325,-0.086086,4.6946e-07,1,514,514,0,0
0.039203,-1.5855e-07,7.8417e-05,-2.4021e-05,2.2123e-11,12.324,-0.086057,7.3458e-07,1,515,515,0,0
0.039281,-1.5918e-07,7.8415e-05,-2.402e-05,3.0331e-11,12.324,-0.086029,9.9969e-07,1,516,516,0,0
0.03936,-1.5982e-07,7.8413e-05,-2.402e-05,3.8539e-11,12.324,-0.086,1.2648e-06,1,517,517,0,0
0.039438,-1.6045e-07,7.8411e-05,-2.4019e-05,4.6747e-11,12.323,-0.085971,1.5299e-06,1,518,518,0,0
0.039517,-1.6108e-07,7.8409e-05,-2.4018e-05,5.4955e-11,12.323,-0.085942,1.795e-06,1,519,519,0,0
0.039595,-1.6171e-07,7.8407e-05,-2.4017e-05,6.3163e-11,12.323,-0.085913,2.0601e-06,1,520,520,0,0
0.039673,-1.6254e-07,7.8405e-05,-2.4016e-05,8.5882e-11,12.322,-0.085884,2.7942e-06,1,521,521,0,0
0.039752,-1.6337e-07,7.8403e-05,-2.4016e-05,1.086e-10,12.322,-0.085855,3.5282e-06,1,522,522,0,0
0.03983,-1.642e-07,7.8401e-05,-2.4015e-05,1.3132e-10,12.322,-0.085826,4.2622e-06,1,523,523,0,0
0.039909,-1.6503e-07,7.84e-05,-2.4014e-05,1.5404e-10,12.321,-0.085797,4.9962e-06,1,524,524,0,0
0.039987,-1.6586e-07,7.8398e-05,-2.4014e-05,1.7676e-10,12.321,-0.085768,5.7302e-06,1,525,525,0,0
0.040065,-1.6669e-07,7.8396e-05,-2.4013e-05,1.9948e-10,12.321,-0.085739,6.4642e-06,1,526,526,0,0
0.040144,-1.6752e-07,7.8394e-05,-2.4012e-05,2.222e-10,12.321,-0.085709,7.1983e-06,1,527,527,0,0
0.040222,-1.6835e-07,7.8392e-05,-2.4012e-05,2.4492e-10,12.32,-0.08568,7.9323e-06,1,528,528,0,0
0.040301,-1.6918e-07,7.839e-05,-2.4011e-05,2.6763e-10,12.32,-0.085651,8.6663e-06,1,529,529,0,0
0.040379,-1.7001e-07,7.8389e-05,-2.401e-05,2.9035e-10,12.32,-0.085622,9.4003e-06,1,530,530,0,0
0.040457,-1.7103e-07,7.8387e-05,-2.401e-05,2.8249e-10,12.32,-0.085613,9.1462e-06,1,531,531,0,0
0.040536,-1.7205e-07,7.8386e-05,-2.4009e-05,2.7462e-10,12.319,-0.085604,8.8921e-06,1,532,532,0,0
0.040614,-1.7307e-07,7.8384e-05,-2.4009e-05,2.6676e-10,12.319,-0.085594,8.638e-06,1,533,533,0,0
0.040693,-1.7409e-07,7.8383e-05,-2.4008e-05,2.5889e-10,12.319,-0.085585,8.3838e-06,1,534,534,0,0
0.040771,-1.7511e-07,7.8381e-05,-2.4008e-05,2.5103e-10,12.319,-0.085576,8.1297e-06,1,535,535,0,0
0.040849,-1.7613e-07,7.838e-05,-2.4007e-05,2.4316e-10,12.318,-0.085567,7.8756e-06,1,536,536,0,0
0.040928,-1.7715e-07,7.8378e-05,-2.4007e-05,2.353e-10,12.318,-0.085558,7.6215e-06,1,537,537,0,0
0.041006,-1.7817e-07,7.8377e-05,-2.4006e-05,2.2744e-10,12.318,-0.085548,7.3674e-06,1,538,538,0,0
0.041084,-1.7919e-07,7.8375e-05,-2.4006e-05,2.1957e-10,12.318,-0.085539,7.1133e-06,1,539,539,0,0
0.041163,-1.8022e-07,7.8374e-05,-2.4005e-05,2.1171e-10,12.318,-0.08553,6.8592e-06,1,540,540,0,0
0.041241,-1.8104e-07,7.8373e-05,-2.4005e-05,1.956e-10,12.317,-0.085527,6.3389e-06,1,541,541,0,0
0.04132,-1.8186e-07,7.8372e-05,-2.4005e-05,1.795e-10,12.317,-0.085525,5.8187e-06,1,542,542,0,0
0.041398,-1.8269e-07,7.8371e-05,-2.4004e-05,1.634e-10,12.317,-0.085522,5.2985e-06,1,543,543,0,0
0.041476,-1.8351e-07,7.837e-05,-2.4004e-05,1.473e-10,12.317,-0.08552,4.7782e-06,1,544,544,0,0
0.041555,-1.8433e-07,7.8369e-05,-2.4004e-05,1.3119e-10,12.317,-0.085517,4.258e-06,1,545,545,0,0
0.041633,-1.8516e-07,7.8368e-05,-2.4003e-05,1.1509e-10,12.317,-0.085514,3.7377e-06,1,546,546,0,0
0.041711,-1.8598e-07,7.8367e-05,-2.4003e-05,9.8989e-11,12.316,-0.085512,3.2175e-06,1,547,547,0,0
0.04179,-1.8681e-07,7.8366e-05,-2.4003e-05,8.2887e-11,12.316,-0.085509,2.6973e-06,1,548,548,0,0
0.041868,-1.8763e-07,7.8365e-05,-2.4003e-05,6.6784e-11,12.316,-0.085507,2.177e-06,1,549,549,0,0
0.041946,-1.8845e-07,7.8364e-05,-2.4002e-05,5.0682e-11,12.316,-0.085504,1.6568e-06,1,550,550,0,0
0.042025,-1.8934e-07,7.8363e-05,-2.4002e-05,5.1919e-11,12.316,-0.08551,1.6967e-06,1,551,551,0,0
0.042103,-1.9023e-07,7.8363e-05,-2.4002e-05,5.3156e-11,12.316,-0.085516,1.7367e-06,1,552,552,0,0
0.042182,-1.9112e-07,7.8362e-05,-2.4002e-05,5.4393e-11,12.316,-0.085523,1.7766e-06,1,553,553,0,0
0.04226,-1.9201e-07,7.8362e-05,-2.4002e-05,5.563e-11,12.316,-0.085529,1.8166e-06,1,554,554,0,0
0.042338,-1.929e-07,7.8361e-05,-2.4001e-05,5.6867e-11,12.315,-0.085535,1.8565e-06,1,555,555,0,0
0.042417,-1.9379e-07,7.836e-05,-2.4001e-05,5.8104e-11,12.315,-0.085541,1.8965e-06,1,556,556,0,0
0.042495,-1.9468e-07,7.836e-05,-2.4001e-05,5.9341e-11,12.315,-0.085547,1.9364e-06,1,557,557,0,0
0.042573,-1.9557e-07,7.8359e-05,-2.4001e-05,6.0578e-11,12.315,-0.085553,1.9764e-06,1,558,558,0,0
0.042652,-1.9646e-07,7.8358e-05,-2.4001e-05,6.1815e-11,12.315,-0.085559,2.0163e-06,1,559,559,0,0
0.04273,-1.9735e-07,7.8358e-05,-2.4001e-05,6.3052e-11,12.315,-0.085565,2.0563e-06,1,560,560,0,0
0.042808,-1.9855e-07,7.8358e-05,-2.4001e-05,5.9993e-11,12.315,-0.085592,1.9574e-06,1,561,561,0,0
0.042887,-1.9975e-07,7.8357e-05,-2.4001e-05,5.6935e-11,12.315,-0.085619,1.8586e-06,1,562,562,0,0
0.042965,-2.0095e-07,7.8357e-05,-2.4001e-05,5.3876e-11,12.315,-0.085646,1.7597e-06,1,563,563,0,0
0.043044,-2.0215e-07,7.8357e-05,-2.4001e-05,5.0817e-11,12.315,-0.085673,1.6608e-06,1,564,564,0,0
0.043122,-2.0335e-07,7.8356e-05,-2.4001e-05,4.7758e-11,12.315,-0.0857,1.562e-06,1,565,565,0,0
0.0432,-2.0455e-07,7.8356e-05,-2.4001e-05,4.47e-11,12.315,-0.085727,1.4631e-06,1,566,566,0,0
0.043279,-2.0575e-07,7.8356e-05,-2.4001e-05,4.1641e-11,12.315,-0.085754,1.3642e-06,1,567,567,0,0
0.043357,-2.0696e-07,7.8355e-05,-2.4001e-05,3.8582e-11,12.315,-0.085781,1.2654e-06,1,568,568,0,0
0.043435,-2.0816e-07,7.8355e-05,-2.4001e-05,3.5523e-11,12.314,-0.085808,1.1665e-06,1,569,569,0,0
0.043514,-2.0936e-07,7.8355e-05,-2.4001e-05,3.2465e-11,12.314,-0.085835,1.0676e-06,1,570,570,0,0
0.043592,-2.1029e-07,7.8355e-05,-2.4002e-05,3.055e-11,12.314,-0.085878,1.0058e-06,1,571,571,0,0
0.04367,-2.1121e-07,7.8355e-05,-2.4002e-05,2.8636e-11,12.314,-0.085922,9.4393e-07,1,572,572,0,0
0.043749,-2.1214e-07,7.8355e-05,-2.4002e-05,2.6722e-11,12.314,-0.085965,8.8208e-07,1,573,573,0,0
0.043827,-2.1307e-07,7.8355e-05,-2.4002e-05,2.4808e-11,12.314,-0.086009,8.2023e-07,1,574,574,0,0
0.043905,-2.14e-07,7.8355e-05,-2.4003e-05,2.2894e-11,12.314,-0.086052,7.5838e-07,1,575,575,0,0
0.043984,-2.1493e-07,7.8355e-05,-2.4003e-05,2.098e-11,12.314,-0.086095,6.9654e-07,1,576,576,0,0
0.044062,-2.1585e-07,7.8355e-05,-2.4003e-05,1.9066e-11,12.314,-0.086139,6.3469e-07,1,577,577,0,0
0.044141,-2.1678e-07,7.8355e-05,-2.4003e-05,1.7152e-11,12.314,-0.086182,5.7284e-07,1,578,578,0,0
0.044219,-2.1771e-07,7.8355e-05,-2.4004e-05,1.5237e-11,12.314,-0.086226,5.1099e-07,1,579,579,0,0
0.044297,-2.1864e-07,7.8355e-05,-2.4004e-05,1.3323e-11,12.314,-0.086269,4.4914e-07,1,580,580,0,0
0.044376,-2.1914e-07,7.8356e-05,-2.4004e-05,1.6301e-11,12.314,-0.086322,5.4533e-07,1,581,581,0,0
0.044454,-2.1963e-07,7.8356e-05,-2.4005e-05,1.9279e-11,12.314,-0.086374,6.4153e-07,1,582,582,0,0
0.044532,-2.2013e-07,7.8357e-05,-2.4005e-05,2.2257e-11,12.314,-0.086427,7.3772e-07,1,583,583,0,0
0.044611,-2.2062e-07,7.8357e-05,-2.4006e-05,2.5235e-11,12.315,-0.086479,8.3392e-07,1,584,584,0,0
0.044689,-2.2112e-07,7.8358e-05,-2.4006e-05,2.8213e-11,12.315,-0.086532,9.3011e-07,1,585,585,0,0
0.044767,-2.2162e-07,7.8358e-05,-2.4007e-05,3.1191e-11,12.315,-0.086584,1.0263e-06,1,586,586,0,0
0.044846,-2.2211e-07,7.8358e-05,-2.4007e-05,3.4168e-11,12.315,-0.086637,1.1225e-06,1,587,587,0,0
0.044924,-2.2261e-07,7.8359e-05,-2.4008e-05,3.7146e-11,12.315,-0.086689,1.2187e-06,1,588,588,0,0
0.045002,-2.231e-07,7.8359e-05,-2.4008e-05,4.0124e-11,12.315,-0.086742,1.3149e-06,1,589,589,0,0
0.045081,-2.236e-07,7.836e-05,-2.4008e-05,4.3102e-11,12.315,-0.086794,1.4111e-06,1,590,590,0,0
0.045159,-2.2431e-07,7.8361e-05,-2.4009e-05,3.8408e-11,12.315,-0.086861,1.2593e-06,1,591,591,0,0
0.045238,-2.2501e-07,7.8361e-05,-2.401e-05,3.3713e-11,12.315,-0.086927,1.1075e-06,1,592,592,0,0
0.045316,-2.2572e-07,7.8362e-05,-2.401e-05,2.9019e-11,12.315,-0.086994,9.5569e-07,1,593,593,0,0
0.045394,-2.2643e-07,7.8363e-05,-2.4011e-05,2.4325e-11,12.315,-0.08706,8.0389e-07,1,594,594,0,0
0.045473,-2.2713e-07,7.8364e-05,-2.4011e-05,1.963e-11,12.315,-0.087126,6.5209e-07,1,595,595,0,0
0.045551,-2.2784e-07,7.8365e-05,-2.4012e-05,1.4936e-11,12.316,-0.087193,5.0029e-07,1,596,596,0,0
0.045629,-2.2855e-07,7.8365e-05,-2.4013e-05,1.0242e-11,12.316,-0.087259,3.4849e-07,1,597,597,0,0
0.045708,-2.2926e-07,7.8366e-05,-2.4013e-05,5.5474e-12,12.316,-0.087326,1.9669e-07,1,598,598,0,0
0.045786,-2.2996e-07,7.8367e-05,-2.4014e-05,8.5306e-13,12.316,-0.087392,4.4896e-08,1,599,599,0,0
0.045864,-2.3067e-07,7.8368e-05,-2.4015e-05,-3.8413e-12,12.316,-0.087458,-1.069e-07,1,600,600,0,0
0.045943,-2.3188e-07,7.8369e-05,-2.4015e-05,-1.663e-12,12.316,-0.087546,-3.6674e-08,1,601,601,0,0
0.046021,-2.331e-07,7.837e-05,-2.4016e-05,5.1526e-13,12.316,-0.087634,3.3554e-08,1,602,602,0,0
0.0461,-2.3431e-07,7.8371e-05,-2.4017e-05,2.6935e-12,12.316,-0.087722,1.0378e-07,1,603,603,0,0
0.046178,-2.3552e-07,7.8373e-05,-2.4018e-05,4.8718e-12,12.317,-0.08781,1.7401e-07,1,604,604,0,0
0.046256,-2.3673e-07,7.8374e-05,-2.4019e-05,7.0501e-12,12.317,-0.087898,2.4424e-07,1,605,605,0,0
0.046335,-2.3795e-07,7.8375e-05,-2.402e-05,9.2283e-12,12.317,-0.087986,3.1447e-07,1,606,606,0,0
0.046413,-2.3916e-07,7.8376e-05,-2.4021e-05,1.1407e-11,12.317,-0.088074,3.8469e-07,1,607,607,0,0
0.046491,-2.4037e-07,7.8377e-05,-2.4021e-05,1.3585e-11,12.317,-0.088162,4.5492e-07,1,608,608,0,0
0.04657,-2.4158e-07,7.8379e-05,-2.4022e-05,1.5763e-11,12.317,-0.08825,5.2515e-07,1,609,609,0,0
0.046648,-2.4279e-07,7.838e-05,-2.4023e-05,1.7941e-11,12.318,-0.088338,5.9538e-07,1,610,610,0,0
0.046726,-2.4408e-07,7.8381e-05,-2.4024e-05,2.3964e-11,12.318,-0.088439,7.8987e-07,1,611,611,0,0
0.046805,-2.4537e-07,7.8383e-05,-2.4025e-05,2.9987e-11,12.318,-0.088539,9.8437e-07,1,612,612,0,0
0.046883,-2.4666e-07,7.8384e-05,-2.4026e-05,3.601e-11,12.318,-0.08864,1.1789e-06,1,613,613,0,0
0.046962,-2.4795e-07,7.8386e-05,-2.4027e-05,4.2033e-11,12.318,-0.088741,1.3734e-06,1,614,614,0,0
0.04704,-2.4924e-07,7.8387e-05,-2.4028e-05,4.8056e-11,12.319,-0.088842,1.5679e-06,1,615,615,0,0
0.047118,-2.5053e-07,7.8389e-05,-2.4029e-05,5.4079e-11,12.319,-0.088943,1.7623e-06,1,616,616,0,0
0.047197,-2.5182e-07,7.839e-05,-2.403e-05,6.0102e-11,12.319,-0.089044,1.9568e-06,1,617,617,0,0
0.047275,-2.5311e-07,7.8392e-05,-2.4031e-05,6.6125e-11,12.319,-0.089145,2.1513e-06,1,618,618,0,0
0.047354,-2.544e-07,7.8393e-05,-2.4032e-05,7.2148e-11,12.319,-0.089246,2.3458e-06,1,619,619,0,0
0.047432,-2.5569e-07,7.8395e-05,-2.4033e-05,7.8171e-11,12.32,-0.089346,2.5403e-06,1,620,620,0,0
0.04751,-2.5649e-07,7.8397e-05,-2.4035e-05,5.5253e-11,12.32,-0.089455,1.7997e-06,1,621,621,0,0
0.047589,-2.5728e-07,7.8398e-05,-2.4036e-05,3.2334e-11,12.32,-0.089563,1.0591e-06,1,622,622,0,0
0.047667,-2.5808e-07,7.84e-05,-2.4037e-05,9.4152e-12,12.32,-0.089671,3.1849e-07,1,623,623,0,0
0.047746,-2.5888e-07,7.8402e-05,-2.4038e-05,-1.3504e-11,12.321,-0.08978,-4.2212e-07,1,624,624,0,0
0.047824,-2.5968e-07,7.8404e-05,-2.4039e-05,-3.6422e-11,12.321,-0.089888,-1.1627e-06,1,625,625,0,0
0.047902,-2.6047e-07,7.8406e-05,-2.4041e-05,-5.9341e-11,12.321,-0.089997,-1.9033e-06,1,626,626,0,0
0.047981,-2.6127e-07,7.8408e-05,-2.4042e-05,-8.226e-11,12.321,-0.090105,-2.644e-06,1,627,627,0,0
0.048059,-2.6207e-07,7.841e-05,-2.4043e-05,-1.0518e-10,12.322,-0.090213,-3.3846e-06,1,628,628,0,0
0.048138,-2.6286e-07,7.8412e-05,-2.4044e-05,-1.281e-10,12.322,-0.090322,-4.1252e-06,1,629,629,0,0
0.048216,-2.6366e-07,7.8414e-05,-2.4045e-05,-1.5102e-10,12.322,-0.09043,-4.8658e-06,1,630,630,0,0
0.048294,-2.6425e-07,7.8416e-05,-2.4047e-05,-1.5506e-10,12.323,-0.090551,-4.9969e-06,1,631,631,0,0
0.048373,-2.6484e-07,7.8418e-05,-2.4048e-05,-1.5911e-10,12.323,-0.090671,-5.128e-06,1,632,632,0,0
0.048451,-2.6543e-07,7.8421e-05,-2.405e-05,-1.6316e-10,12.323,-0.090792,-5.2591e-06,1,633,633,0,0
0.04853,-2.6601e-07,7.8423e-05,-2.4051e-05,-1.6721e-10,12.324,-0.090912,-5.3902e-06,1,634,634,0,0
0.048608,-2.666e-07,7.8425e-05,-2.4052e-05,-1.7126e-10,12.324,-0.091033,-5.5213e-06,1,635,635,0,0
0.048687,-2.6719e-07,7.8428e-05,-2.4054e-05,-1.7531e-10,12.324,-0.091153,-5.6524e-06,1,636,636,0,0
0.048765,-2.6778e-07,7.843e-05,-2.4055e-05,-1.7936e-10,12.325,-0.091274,-5.7835e-06,1,637,637,0,0
0.048843,-2.6837e-07,7.8433e-05,-2.4057e-05,-1.834e-10,12.325,-0.091394,-5.9145e-06,1,638,638,0,0
0.048922,-2.6895e-07,7.8435e-05,-2.4058e-05,-1.8745e-10,12.325,-0.091515,-6.0456e-06,1,639,639,0,0
0.049,-2.6954e-07,7.8437e-05,-2.4059e-05,-1.915e-10,12.326,-0.091635,-6.1767e-06,1,640,640,0,0
0.049079,-2.7051e-07,7.844e-05,-2.4061e-05,-1.9202e-10,12.326,-0.091759,-6.1938e-06,1,641,641,0,0
0.049157,-2.7148e-07,7.8443e-05,-2.4062e-05,-1.9253e-10,12.326,-0.091883,-6.2108e-06,1,642,642,0,0
0.049236,-2.7244e-07,7.8446e-05,-2.4064e-05,-1.9304e-10,12.327,-0.092007,-6.2278e-06,1,643,643,0,0
0.049314,-2.7341e-07,7.8448e-05,-2.4065e-05,-1.9356e-10,12.327,-0.092132,-6.2449e-06,1,644,644,0,0
0.049393,-2.7437e-07,7.8451e-05,-2.4067e-05,-1.9407e-10,12.328,-0.092256,-6.2619e-06,1,645,645,0,0
0.049471,-2.7534e-07,7.8454e-05,-2.4069e-05,-1.9459e-10,12.328,-0.09238,-6.2789e-06,1,646,646,0,0
0.049549,-2.7631e-07,7.8457e-05,-2.407e-05,-1.951e-10,12.328,-0.092504,-6.2959e-06,1,647,647,0,0
0.049628,-2.7727e-07,7.846e-05,-2.4072e-05,-1.9562e-10,12.329,-0.092628,-6.313e-06,1,648,648,0,0
0.049706,-2.7824e-07,7.8462e-05,-2.4073e-05,-1.9613e-10,12.329,-0.092752,-6.33e-06,1,649,649,0,0
0.049785,-2.7921e-07,7.8465e-05,-2.4075e-05,-1.9664e-10,12.33,-0.092876,-6.347e-06,1,650,650,0,0
0.049863,-2.8042e-07,7.8468e-05,-2.4076e-05,-2.0021e-10,12.33,-0.093,-6.4628e-06,1,651,651,0,0
0.049942,-2.8163e-07,7.8471e-05,-2.4078e-05,-2.0378e-10,12.331,-0.093123,-6.5786e-06,1,652,652,0,0
0.05002,-2.8285e-07,7.8474e-05,-2.408e-05,-2.0735e-10,12.331,-0.093247,-6.6943e-06,1,653,653,0,0
0.050099,-2.8406e-07,7.8477e-05,-2.4081e-05,-2.1092e-10,12.331,-0.093371,-6.8101e-06,1,654,654,0,0
0.050177,-2.8528e-07,7.848e-05,-2.4083e-05,-2.1449e-10,12.332,-0.093495,-6.9259e-06,1,655,655,0,0
0.050256,-2.8649e-07,7.8483e-05,-2.4084e-05,-2.1806e-10,12.332,-0.093619,-7.0417e-06,1,656,656,0,0
0.050334,-2.8771e-07,7.8486e-05,-2.4086e-05,-2.2162e-10,12.333,-0.093743,-7.1574e-06,1,657,657,0,0
0.050413,-2.8892e-07,7.8489e-05,-2.4088e-05,-2.2519e-10,12.333,-0.093867,-7.2732e-06,1,658,658,0,0
0.050491,-2.9014e-07,7.8492e-05,-2.4089e-05,-2.2876e-10,12.334,-0.093991,-7.389e-06,1,659,659,0,0
0.05057,-2.9135e-07,7.8495e-05,-2.4091e-05,-2.3233e-10,12.334,-0.094115,-7.5047e-06,1,660,660,0,0
0.050648,-2.9265e-07,7.8499e-05,-2.4093e-05,-2.1043e-10,12.335,-0.094237,-6.7976e-06,1,661,661,0,0
0.050727,-2.9394e-07,7.8502e-05,-2.4094e-05,-1.8852e-10,12.335,-0.09436,-6.0904e-06,1,662,662,0,0
0.050805,-2.9524e-07,7.8505e-05,-2.4096e-05,-1.6662e-10,12.336,-0.094483,-5.3832e-06,1,663,663,0,0
0.050884,-2.9653e-07,7.8509e-05,-2.4098e-05,-1.4472e-10,12.336,-0.094605,-4.676e-06,1,664,664,0,0
0.050962,-2.9783e-07,7.8512e-05,-2.4099e-05,-1.2282e-10,12.337,-0.094728,-3.9689e-06,1,665,665,0,0
0.051041,-2.9912e-07,7.8515e-05,-2.4101e-05,-1.0091e-10,12.337,-0.09485,-3.2617e-06,1,666,666,0,0
0.051119,-3.0042e-07,7.8519e-05,-2.4103e-05,-7.9009e-11,12.338,-0.094973,-2.5545e-06,1,667,667,0,0
0.051198,-3.0172e-07,7.8522e-05,-2.4104e-05,-5.7107e-11,12.338,-0.095096,-1.8473e-06,1,668,668,0,0
0.051276,-3.0301e-07,7.8525e-05,-2.4106e-05,-3.5204e-11,12.339,-0.095218,-1.1402e-06,1,669,669,0,0
0.051355,-3.0431e-07,7.8528e-05,-2.4108e-05,-1.3301e-11,12.339,-0.095341,-4.3298e-07,1,670,670,0,0
0.051433,-3.0496e-07,7.8532e-05,-2.411e-05,-4.0657e-11,12.34,-0.095456,-1.3173e-06,1,671,671,0,0
0.051512,-3.0562e-07,7.8536e-05,-2.4111e-05,-6.8012e-11,12.34,-0.095571,-2.2017e-06,1,672,672,0,0
0.05159,-3.0627e-07,7.8539e-05,-2.4113e-05,-9.5368e-11,12.341,-0.095686,-3.086e-06,1,673,673,0,0
0.051669,-3.0693e-07,7.8543e-05,-2.4115e-05,-1.2272e-10,12.341,-0.095801,-3.9704e-06,1,674,674,0,0
0.051747,-3.0758e-07,7.8547e-05,-2.4116e-05,-1.5008e-10,12.342,-0.095916,-4.8547e-06,1,675,675,0,0
0.051826,-3.0823e-07,7.855e-05,-2.4118e-05,-1.7744e-10,12.342,-0.096031,-5.7391e-06,1,676,676,0,0
0.051904,-3.0889e-07,7.8554e-05,-2.412e-05,-2.0479e-10,12.343,-0.096146,-6.6234e-06,1,677,677,0,0
0.051983,-3.0954e-07,7.8557e-05,-2.4122e-05,-2.3215e-10,12.343,-0.096261,-7.5078e-06,1,678,678,0,0
0.052062,-3.102e-07,7.8561e-05,-2.4123e-05,-2.595e-10,12.344,-0.096376,-8.3921e-06,1,679,679,0,0
0.05214,-3.1085e-07,7.8565e-05,-2.4125e-05,-2.8686e-10,12.344,-0.096491,-9.2765e-06,1,680,680,0,0
0.052219,-3.1187e-07,7.8569e-05,-2.4127e-05,-2.273e-10,12.345,-0.096591,-7.353e-06,1,681,681,0,0
0.052297,-3.1289e-07,7.8573e-05,-2.4129e-05,-1.6774e-10,12.346,-0.096691,-5.4296e-06,1,682,682,0,0
0.052376,-3.1391e-07,7.8577e-05,-2.413e-05,-1.0818e-10,12.346,-0.096791,-3.5061e-06,1,683,683,0,0
0.052454,-3.1493e-07,7.8581e-05,-2.4132e-05,-4.8614e-11,12.347,-0.096892,-1.5827e-06,1,684,684,0,0
0.052533,-3.1595e-07,7.8585e-05,-2.4134e-05,1.0946e-11,12.347,-0.096992,3.4075e-07,1,685,685,0,0
0.052612,-3.1697e-07,7.8589e-05,-2.4136e-05,7.0507e-11,12.348,-0.097092,2.2642e-06,1,686,686,0,0
0.05269,-3.1798e-07,7.8593e-05,-2.4137e-05,1.3007e-10,12.349,-0.097192,4.1876e-06,1,687,687,0,0
0.052769,-3.19e-07,7.8597e-05,-2.4139e-05,1.8963e-10,12.349,-0.097292,6.1111e-06,1,688,688,0,0
0.052847,-3.2002e-07,7.8601e-05,-2.4141e-05,2.4919e-10,12.35,-0.097393,8.0345e-06,1,689,689,0,0
0.052926,-3.2104e-07,7.8605e-05,-2.4143e-05,3.0875e-10,12.35,-0.097493,9.958e-06,1,690,690,0,0
0.053005,-3.2271e-07,7.8609e-05,-2.4144e-05,2.803e-10,12.351,-0.097568,9.038e-06,1,691,691,0,0
0.053083,-3.2439e-07,7.8613e-05,-2.4146e-05,2.5185e-10,12.352,-0.097643,8.118e-06,1,692,692,0,0
0.053162,-3.2606e-07,7.8618e-05,-2.4148e-05,2.234e-10,12.352,-0.097718,7.198e-06,1,693,693,0,0
0.05324,-3.2773e-07,7.8622e-05,-2.415e-05,1.9495e-10,12.353,-0.097794,6.2779e-06,1,694,694,0,0
0.053319,-3.2941e-07,7.8626e-05,-2.4151e-05,1.6649e-10,12.354,-0.097869,5.3579e-06,1,695,695,0,0
0.053398,-3.3108e-07,7.863e-05,-2.4153e-05,1.3804e-10,12.354,-0.097944,4.4379e-06,1,696,696,0,0
0.053476,-3.3275e-07,7.8635e-05,-2.4155e-05,1.0959e-10,12.355,-0.098019,3.5179e-06,1,697,697,0,0
0.053555,-3.3442e-07,7.8639e-05,-2.4156e-05,8.114e-11,12.356,-0.098095,2.5979e-06,1,698,698,0,0
0.053634,-3.361e-07,7.8643e-05,-2.4158e-05,5.2688e-11,12.356,-0.09817,1.6779e-06,1,699,699,0,0
0.053712,-3.3777e-07,7.8648e-05,-2.416e-05,2.4237e-11,12.357,-0.098245,7.5787e-07,1,700,700,0,0
0.053791,-3.3913e-07,7.8652e-05,-2.4162e-05,4.1038e-11,12.358,-0.09829,1.3e-06,1,701,701,0,0
0.05387,-3.4049e-07,7.8657e-05,-2.4163e-05,5.784e-11,12.358,-0.098335,1.8422e-06,1,702,702,0,0
0.053948,-3.4185e-07,7.8662e-05,-2.4165e-05,7.4641e-11,12.359,-0.098379,2.3844e-06,1,703,703,0,0
0.054027,-3.4322e-07,7.8666e-05,-2.4166e-05,9.1443e-11,12.36,-0.098424,2.9265e-06,1,704,704,0,0
0.054106,-3.4458e-07,7.8671e-05,-2.4168e-05,1.0824e-10,12.361,-0.098469,3.4687e-06,1,705,705,0,0
0.054184,-3.4594e-07,7.8675e-05,-2.417e-05,1.2505e-10,12.361,-0.098514,4.0108e-06,1,706,706,0,0
0.054263,-3.473e-07,7.868e-05,-2.4171e-05,1.4185e-10,12.362,-0.098559,4.553e-06,1,707,707,0,0
0.054342,-3.4866e-07,7.8684e-05,-2.4173e-05,1.5865e-10,12.363,-0.098603,5.0952e-06,1,708,708,0,0
0.05442,-3.5003e-07,7.8689e-05,-2.4174e-05,1.7545e-10,12.363,-0.098648,5.6373e-06,1,709,709,0,0
0.054499,-3.5139e-07,7.8694e-05,-2.4176e-05,1.9225e-10,12.364,-0.098693,6.1795e-06,1,710,710,0,0
0.054578,-3.5273e-07,7.8698e-05,-2.4177e-05,1.8986e-10,12.365,-0.098698,6.1014e-06,1,711,711,0,0
0.054656,-3.5407e-07,7.8703e-05,-2.4179e-05,1.8746e-10,12.366,-0.098704,6.0232e-06,1,712,712,0,0
0.054735,-3.5542e-07,7.8708e-05,-2.418e-05,1.8507e-10,12.366,-0.098709,5.9451e-06,1,713,713,0,0
0.054814,-3.5676e-07,7.8713e-05,-2.4182e-05,1.8267e-10,12.367,-0.098715,5.867e-06,1,714,714,0,0
0.054892,-3.5811e-07,7.8718e-05,-2.4183e-05,1.8028e-10,12.368,-0.09872,5.7889e-06,1,715,715,0,0
0.054971,-3.5945e-07,7.8722e-05,-2.4185e-05,1.7788e-10,12.369,-0.098726,5.7107e-06,1,716,716,0,0
0.05505,-3.6079e-07,7.8727e-05,-2.4186e-05,1.7549e-10,12.369,-0.098731,5.6326e-06,1,717,717,0,0
0.055129,-3.6214e-07,7.8732e-05,-2.4188e-05,1.7309e-10,12.37,-0.098737,5.5545e-06,1,718,718,0,0
0.055207,-3.6348e-07,7.8737e-05,-2.4189e-05,1.707e-10,12.371,-0.098742,5.4764e-06,1,719,719,0,0
0.055286,-3.6483e-07,7.8741e-05,-2.4191e-05,1.683e-10,12.372,-0.098748,5.3983e-06,1,720,720,0,0
0.055365,-3.6636e-07,7.8746e-05,-2.4192e-05,1.8992e-10,12.372,-0.098701,6.0957e-06,1,721,721,0,0
0.055444,-3.6789e-07,7.8751e-05,-2.4193e-05,2.1153e-10,12.373,-0.098655,6.7931e-06,1,722,722,0,0
0.055522,-3.6942e-07,7.8756e-05,-2.4194e-05,2.3314e-10,12.374,-0.098608,7.4905e-06,1,723,723,0,0
0.055601,-3.7095e-07,7.8761e-05,-2.4195e-05,2.5475e-10,12.375,-0.098562,8.1879e-06,1,724,724,0,0
0.05568,-3.7248e-07,7.8766e-05,-2.4196e-05,2.7636e-10,12.376,-0.098515,8.8853e-06,1,725,725,0,0
0.055759,-3.7401e-07,7.8771e-05,-2.4198e-05,2.9797e-10,12.376,-0.098468,9.5827e-06,1,726,726,0,0
0.055837,-3.7554e-07,7.8775e-05,-2.4199e-05,3.1958e-10,12.377,-0.098422,1.028e-05,1,727,727,0,0
0.055916,-3.7708e-07,7.878e-05,-2.42e-05,3.4119e-10,12.378,-0.098375,1.0978e-05,1,728,728,0,0
0.055995,-3.7861e-07,7.8785e-05,-2.4201e-05,3.628e-10,12.379,-0.098329,1.1675e-05,1,729,729,0,0
0.056074,-3.8014e-07,7.879e-05,-2.4202e-05,3.8442e-10,12.38,-0.098282,1.2372e-05,1,730,730,0,0
0.056153,-3.8131e-07,7.8795e-05,-2.4203e-05,3.3206e-10,12.38,-0.098171,1.068e-05,1,731,731,0,0
0.056231,-3.8248e-07,7.88e-05,-2.4204e-05,2.797e-10,12.381,-0.098061,8.9875e-06,1,732,732,0,0
0.05631,-3.8365e-07,7.8805e-05,-2.4205e-05,2.2734e-10,12.382,-0.09795,7.2951e-06,1,733,733,0,0
0.056389,-3.8482e-07,7.881e-05,-2.4206e-05,1.7498e-10,12.383,-0.097839,5.6027e-06,1,734,734,0,0
0.056468,-3.8599e-07,7.8815e-05,-2.4206e-05,1.2262e-10,12.384,-0.097729,3.9103e-06,1,735,735,0,0
0.056547,-3.8716e-07,7.882e-05,-2.4207e-05,7.0257e-11,12.385,-0.097618,2.2178e-06,1,736,736,0,0
0.056625,-3.8833e-07,7.8825e-05,-2.4208e-05,1.7897e-11,12.385,-0.097508,5.254e-07,1,737,737,0,0
0.056704,-3.895e-07,7.8831e-05,-2.4209e-05,-3.4463e-11,12.386,-0.097397,-1.167e-06,1,738,738,0,0
0.056783,-3.9067e-07,7.8836e-05,-2.421e-05,-8.6823e-11,12.387,-0.097286,-2.8595e-06,1,739,739,0,0
0.056862,-3.9184e-07,7.8841e-05,-2.4211e-05,-1.3918e-10,12.388,-0.097176,-4.5519e-06,1,740,740,0,0
0.056941,-3.9281e-07,7.8846e-05,-2.4211e-05,-1.2687e-10,12.389,-0.096992,-4.1548e-06,1,741,741,0,0
0.05702,-3.9378e-07,7.8851e-05,-2.4212e-05,-1.1455e-10,12.39,-0.096808,-3.7577e-06,1,742,742,0,0
0.057099,-3.9475e-07,7.8856e-05,-2.4212e-05,-1.0223e-10,12.391,-0.096624,-3.3607e-06,1,743,743,0,0
0.057177,-3.9572e-07,7.8861e-05,-2.4212e-05,-8.9912e-11,12.391,-0.09644,-2.9636e-06,1,744,744,0,0
0.057256,-3.9669e-07,7.8866e-05,-2.4213e-05,-7.7594e-11,12.392,-0.096255,-2.5665e-06,1,745,745,0,0
0.057335,-3.9766e-07,7.8871e-05,-2.4213e-05,-6.5276e-11,12.393,-0.096071,-2.1695e-06,1,746,746,0,0
0.057414,-3.9863e-07,7.8876e-05,-2.4214e-05,-5.2958e-11,12.394,-0.095887,-1.7724e-06,1,747,747,0,0
0.057493,-3.996e-07,7.8882e-05,-2.4214e-05,-4.064e-11,12.395,-0.095703,-1.3753e-06,1,748,748,0,0
0.057572,-4.0057e-07,7.8887e-05,-2.4215e-05,-2.8322e-11,12.396,-0.095519,-9.7825e-07,1,749,749,0,0
0.057651,-4.0154e-07,7.8892e-05,-2.4215e-05,-1.6005e-11,12.397,-0.095335,-5.8119e-07,1,750,750,0,0
0.05773,-4.0294e-07,7.8897e-05,-2.4215e-05,-2.3687e-11,12.398,-0.09506,-8.3047e-07,1,751,751,0,0
0.057808,-4.0434e-07,7.8902e-05,-2.4215e-05,-3.1368e-11,12.398,-0.094784,-1.0798e-06,1,752,752,0,0
0.057887,-4.0575e-07,7.8907e-05,-2.4215e-05,-3.905e-11,12.399,-0.094509,-1.329e-06,1,753,753,0,0
0.057966,-4.0715e-07,7.8912e-05,-2.4215e-05,-4.6732e-11,12.4,-0.094233,-1.5783e-06,1,754,754,0,0
0.058045,-4.0856e-07,7.8917e-05,-2.4215e-05,-5.4414e-11,12.401,-0.093957,-1.8276e-06,1,755,755,0,0
0.058124,-4.0996e-07,7.8923e-05,-2.4215e-05,-6.2096e-11,12.402,-0.093682,-2.0769e-06,1,756,756,0,0
0.058203,-4.1136e-07,7.8928e-05,-2.4215e-05,-6.9778e-11,12.403,-0.093406,-2.3262e-06,1,757,757,0,0
0.058282,-4.1277e-07,7.8933e-05,-2.4215e-05,-7.746e-11,12.404,-0.093131,-2.5755e-06,1,758,758,0,0
0.058361,-4.1417e-07,7.8938e-05,-2.4214e-05,-8.5142e-11,12.405,-0.092855,-2.8247e-06,1,759,759,0,0
0.05844,-4.1557e-07,7.8943e-05,-2.4214e-05,-9.2824e-11,12.406,-0.09258,-3.074e-06,1,760,760,0,0
0.058519,-4.1693e-07,7.8948e-05,-2.4214e-05,-8.7988e-11,12.407,-0.092203,-2.9191e-06,1,761,761,0,0
0.058598,-4.1829e-07,7.8953e-05,-2.4213e-05,-8.3151e-11,12.407,-0.091827,-2.7642e-06,1,762,762,0,0
0.058677,-4.1966e-07,7.8959e-05,-2.4212e-05,-7.8315e-11,12.408,-0.09145,-2.6092e-06,1,763,763,0,0
0.058756,-4.2102e-07,7.8964e-05,-2.4212e-05,-7.3479e-11,12.409,-0.091074,-2.4543e-06,1,764,764,0,0
0.058835,-4.2238e-07,7.8969e-05,-2.4211e-05,-6.8642e-11,12.41,-0.090697,-2.2994e-06,1,765,765,0,0
0.058914,-4.2374e-07,7.8974e-05,-2.421e-05,-6.3806e-11,12.411,-0.090321,-2.1445e-06,1,766,766,0,0
0.058992,-4.251e-07,7.8979e-05,-2.421e-05,-5.8969e-11,12.412,-0.089945,-1.9895e-06,1,767,767,0,0
0.059071,-4.2646e-07,7.8984e-05,-2.4209e-05,-5.4133e-11,12.413,-0.089568,-1.8346e-06,1,768,768,0,0
0.05915,-4.2782e-07,7.8989e-05,-2.4208e-05,-4.9297e-11,12.414,-0.089192,-1.6797e-06,1,769,769,0,0
0.059229,-4.2918e-07,7.8994e-05,-2.4208e-05,-4.446e-11,12.415,-0.088815,-1.5248e-06,1,770,770,0,0
0.059308,-4.3052e-07,7.8999e-05,-2.4206e-05,-4.3092e-11,12.416,-0.088309,-1.4819e-06,1,771,771,0,0
0.059387,-4.3186e-07,7.9004e-05,-2.4205e-05,-4.1724e-11,12.417,-0.087803,-1.4389e-06,1,772,772,0,0
0.059466,-4.332e-07,7.9009e-05,-2.4203e-05,-4.0356e-11,12.418,-0.087297,-1.396e-06,1,773,773,0,0
0.059545,-4.3454e-07,7.9014e-05,-2.4202e-05,-3.8988e-11,12.419,-0.08679,-1.3531e-06,1,774,774,0,0
0.059624,-4.3588e-07,7.9019e-05,-2.42e-05,-3.7621e-11,12.419,-0.086284,-1.3102e-06,1,775,775,0,0
0.059704,-4.3721e-07,7.9024e-05,-2.4199e-05,-3.6253e-11,12.42,-0.085778,-1.2673e-06,1,776,776,0,0
0.059783,-4.3855e-07,7.9029e-05,-2.4197e-05,-3.4885e-11,12.421,-0.085272,-1.2244e-06,1,777,777,0,0
0.059862,-4.3989e-07,7.9034e-05,-2.4196e-05,-3.3517e-11,12.422,-0.084766,-1.1815e-06,1,778,778,0,0
0.059941,-4.4123e-07,7.9038e-05,-2.4194e-05,-3.2149e-11,12.423,-0.084259,-1.1386e-06,1,779,779,0,0
0.06002,-4.4257e-07,7.9043e-05,-2.4193e-05,-3.0781e-11,12.424,-0.083753,-1.0957e-06,1,780,780,0,0
0.060099,-4.4382e-07,7.9048e-05,-2.4191e-05,-2.7159e-11,12.425,-0.083102,-9.799e-07,1,781,781,0,0
0.060178,-4.4506e-07,7.9053e-05,-2.4188e-05,-2.3537e-11,12.426,-0.082451,-8.641e-07,1,782,782,0,0
0.060257,-4.4631e-07,7.9057e-05,-2.4186e-05,-1.9915e-11,12.427,-0.0818,-7.4831e-07,1,783,783,0,0
0.060336,-4.4756e-07,7.9062e-05,-2.4183e-05,-1.6293e-11,12.428,-0.081149,-6.3252e-07,1,784,784,0,0
0.060415,-4.488e-07,7.9066e-05,-2.4181e-05,-1.2671e-11,12.429,-0.080498,-5.1672e-07,1,785,785,0,0
0.060494,-4.5005e-07,7.9071e-05,-2.4179e-05,-9.049e-12,12.43,-0.079847,-4.0093e-07,1,786,786,0,0
0.060573,-4.513e-07,7.9076e-05,-2.4176e-05,-5.427e-12,12.431,-0.079196,-2.8514e-07,1,787,787,0,0
0.060652,-4.5254e-07,7.908e-05,-2.4174e-05,-1.8051e-12,12.432,-0.078545,-1.6934e-07,1,788,788,0,0
0.060731,-4.5379e-07,7.9085e-05,-2.4171e-05,1.8169e-12,12.432,-0.077894,-5.3548e-08,1,789,789,0,0
0.06081,-4.5504e-07,7.9089e-05,-2.4169e-05,5.4389e-12,12.433,-0.077244,6.2246e-08,1,790,790,0,0
0.060889,-4.5616e-07,7.9094e-05,-2.4166e-05,8.2359e-12,12.434,-0.07644,1.5144e-07,1,791,791,0,0
0.060969,-4.5728e-07,7.9098e-05,-2.4162e-05,1.1033e-11,12.435,-0.075636,2.4064e-07,1,792,792,0,0
0.061048,-4.5841e-07,7.9103e-05,-2.4159e-05,1.383e-11,12.436,-0.074832,3.2983e-07,1,793,793,0,0
0.061127,-4.5953e-07,7.9107e-05,-2.4156e-05,1.6627e-11,12.437,-0.074028,4.1903e-07,1,794,794,0,0
0.061206,-4.6065e-07,7.9111e-05,-2.4152e-05,1.9424e-11,12.438,-0.073224,5.0822e-07,1,795,795,0,0
0.061285,-4.6178e-07,7.9116e-05,-2.4149e-05,2.2221e-11,12.439,-0.072421,5.9742e-07,1,796,796,0,0
0.061364,-4.629e-07,7.912e-05,-2.4146e-05,2.5018e-11,12.44,-0.071617,6.8661e-07,1,797,797,0,0
0.061443,-4.6403e-07,7.9125e-05,-2.4142e-05,2.7815e-11,12.441,-0.070813,7.7581e-07,1,798,798,0,0
0.061522,-4.6515e-07,7.9129e-05,-2.4139e-05,3.0612e-11,12.442,-0.070009,8.6501e-07,1,799,799,0,0
0.061601,-4.6627e-07,7.9133e-05,-2.4135e-05,3.3409e-11,12.443,-0.069206,9.542e-07,1,800,800,0,0
0.061681,-4.6762e-07,7.9137e-05,-2.4131e-05,4.2305e-11,12.444,-0.068224,1.2405e-06,1,801,801,0,0
0.06176,-4.6896e-07,7.9141e-05,-2.4127e-05,5.12e-11,12.445,-0.067242,1.5267e-06,1,802,802,0,0
0.061839,-4.703e-07,7.9145e-05,-2.4122e-05,6.0096e-11,12.446,-0.06626,1.813e-06,1,803,803,0,0
0.061918,-4.7165e-07,7.9149e-05,-2.4118e-05,6.8991e-11,12.447,-0.065279,2.0993e-06,1,804,804,0,0
0.061997,-4.7299e-07,7.9153e-05,-2.4113e-05,7.7887e-11,12.447,-0.064297,2.3855e-06,1,805,805,0,0
0.062076,-4.7433e-07,7.9157e-05,-2.4109e-05,8.6782e-11,12.448,-0.063315,2.6718e-06,1,806,806,0,0
0.062156,-4.7568e-07,7.9161e-05,-2.4104e-05,9.5678e-11,12.449,-0.062334,2.9581e-06,1,807,807,0,0
0.062235,-4.7702e-07,7.9165e-05,-2.41e-05,1.0457e-10,12.45,-0.061352,3.2443e-06,1,808,808,0,0
0.062314,-4.7836e-07,7.9169e-05,-2.4095e-05,1.1347e-10,12.451,-0.06037,3.5306e-06,1,809,809,0,0
0.062393,-4.797e-07,7.9173e-05,-2.4091e-05,1.2236e-10,12.452,-0.059388,3.8169e-06,1,810,810,0,0
0.062472,-4.8137e-07,7.9177e-05,-2.4085e-05,1.2626e-10,12.453,-0.058211,3.9419e-06,1,811,811,0,0
0.062551,-4.8304e-07,7.918e-05,-2.4079e-05,1.3016e-10,12.454,-0.057033,4.0669e-06,1,812,812,0,0
0.062631,-4.8471e-07,7.9183e-05,-2.4073e-05,1.3406e-10,12.455,-0.055856,4.1919e-06,1,813,813,0,0
0.06271,-4.8638e-07,7.9187e-05,-2.4067e-05,1.3796e-10,12.456,-0.054678,4.317e-06,1,814,814,0,0
0.062789,-4.8805e-07,7.919e-05,-2.4061e-05,1.4186e-10,12.457,-0.0535,4.442e-06,1,815,815,0,0
0.062868,-4.8972e-07,7.9193e-05,-2.4056e-05,1.4575e-10,12.457,-0.052323,4.567e-06,1,816,816,0,0
0.062947,-4.9139e-07,7.9197e-05,-2.405e-05,1.4965e-10,12.458,-0.051145,4.6921e-06,1,817,817,0,0
0.063027,-4.9306e-07,7.92e-05,-2.4044e-05,1.5355e-10,12.459,-0.049967,4.8171e-06,1,818,818,0,0
0.063106,-4.9473e-07,7.9203e-05,-2.4038e-05,1.5745e-10,12.46,-0.04879,4.9421e-06,1,819,819,0,0
0.063185,-4.964e-07,7.9207e-05,-2.4032e-05,1.6135e-10,12.461,-0.047612,5.0671e-06,1,820,820,0,0
0.063264,-4.9824e-07,7.9209e-05,-2.4025e-05,1.7419e-10,12.462,-0.046215,5.4814e-06,1,821,821,0,0
0.063343,-5.0008e-07,7.9212e-05,-2.4018e-05,1.8704e-10,12.463,-0.044819,5.8956e-06,1,822,822,0,0
0.063423,-5.0192e-07,7.9214e-05,-2.401e-05,1.9988e-10,12.463,-0.043422,6.3098e-06,1,823,823,0,0
0.063502,-5.0376e-07,7.9217e-05,-2.4003e-05,2.1273e-10,12.464,-0.042025,6.7241e-06,1,824,824,0,0
0.063581,-5.056e-07,7.9219e-05,-2.3996e-05,2.2558e-10,12.465,-0.040628,7.1383e-06,1,825,825,0,0
0.06366,-5.0744e-07,7.9222e-05,-2.3988e-05,2.3842e-10,12.466,-0.039231,7.5525e-06,1,826,826,0,0
0.063739,-5.0928e-07,7.9224e-05,-2.3981e-05,2.5127e-10,12.467,-0.037835,7.9668e-06,1,827,827,0,0
0.063819,-5.1112e-07,7.9227e-05,-2.3974e-05,2.6411e-10,12.468,-0.036438,8.381e-06,1,828,828,0,0
0.063898,-5.1296e-07,7.9229e-05,-2.3967e-05,2.7696e-10,12.468,-0.035041,8.7952e-06,1,829,829,0,0
0.063977,-5.148e-07,7.9232e-05,-2.3959e-05,2.8981e-10,12.469,-0.033644,9.2095e-06,1,830,830,0,0
0.064056,-5.1653e-07,7.9233e-05,-2.395e-05,2.7713e-10,12.47,-0.032011,8.7994e-06,1,831,831,0,0
0.064136,-5.1826e-07,7.9235e-05,-2.3941e-05,2.6446e-10,12.471,-0.030378,8.3893e-06,1,832,832,0,0
0.064215,-5.1999e-07,7.9236e-05,-2.3932e-05,2.5179e-10,12.472,-0.028745,7.9792e-06,1,833,833,0,0
0.064294,-5.2172e-07,7.9238e-05,-2.3923e-05,2.3912e-10,12.472,-0.027112,7.5691e-06,1,834,834,0,0
0.064373,-5.2345e-07,7.924e-05,-2.3914e-05,2.2645e-10,12.473,-0.025479,7.159e-06,1,835,835,0,0
0.064453,-5.2519e-07,7.9241e-05,-2.3905e-05,2.1377e-10,12.474,-0.023846,6.7488e-06,1,836,836,0,0
0.064532,-5.2692e-07,7.9243e-05,-2.3897e-05,2.011e-10,12.475,-0.022213,6.3387e-06,1,837,837,0,0
0.064611,-5.2865e-07,7.9244e-05,-2.3888e-05,1.8843e-10,12.475,-0.02058,5.9286e-06,1,838,838,0,0
0.06469,-5.3038e-07,7.9246e-05,-2.3879e-05,1.7576e-10,12.476,-0.018947,5.5185e-06,1,839,839,0,0
0.064769,-5.3211e-07,7.9248e-05,-2.387e-05,1.6309e-10,12.477,-0.017314,5.1084e-06,1,840,840,0,0
0.064849,-5.3365e-07,7.9248e-05,-2.3859e-05,1.6302e-10,12.477,-0.015436,5.1057e-06,1,841,841,0,0
0.064928,-5.3518e-07,7.9248e-05,-2.3848e-05,1.6294e-10,12.478,-0.013558,5.103e-06,1,842,842,0,0
0.065007,-5.3671e-07,7.9249e-05,-2.3838e-05,1.6287e-10,12.479,-0.01168,5.1003e-06,1,843,843,0,0
0.065086,-5.3824e-07,7.9249e-05,-2.3827e-05,1.628e-10,12.479,-0.0098015,5.0976e-06,1,844,844,0,0
0.065166,-5.3978e-07,7.925e-05,-2.3816e-05,1.6273e-10,12.48,-0.0079235,5.0949e-06,1,845,845,0,0
0.065245,-5.4131e-07,7.925e-05,-2.3806e-05,1.6266e-10,12.481,-0.0060455,5.0922e-06,1,846,846,0,0
0.065324,-5.4284e-07,7.9251e-05,-2.3795e-05,1.6259e-10,12.481,-0.0041674,5.0895e-06,1,847,847,0,0
0.065404,-5.4438e-07,7.9251e-05,-2.3784e-05,1.6252e-10,12.482,-0.0022894,5.0868e-06,1,848,848,0,0
0.065483,-5.4591e-07,7.9252e-05,-2.3774e-05,1.6245e-10,12.483,-0.00041136,5.0841e-06,1,849,849,0,0
0.065562,-5.4744e-07,7.9252e-05,-2.3763e-05,1.6238e-10,12.483,0.0014667,5.0814e-06,1,850,850,0,0
0.065641,-5.4908e-07,7.9251e-05,-2.375e-05,1.6452e-10,12.484,0.0035973,5.1504e-06,1,851,851,0,0
0.065721,-5.5071e-07,7.925e-05,-2.3738e-05,1.6666e-10,12.484,0.005728,5.2194e-06,1,852,852,0,0
0.0658,-5.5234e-07,7.9249e-05,-2.3725e-05,1.688e-10,12.485,0.0078586,5.2883e-06,1,853,853,0,0
0.065879,-5.5398e-07,7.9248e-05,-2.3713e-05,1.7094e-10,12.485,0.0099892,5.3573e-06,1,854,854,0,0
0.065958,-5.5561e-07,7.9247e-05,-2.37e-05,1.7309e-10,12.486,0.01212,5.4263e-06,1,855,855,0,0
0.066038,-5.5724e-07,7.9246e-05,-2.3688e-05,1.7523e-10,12.487,0.014251,5.4952e-06,1,856,856,0,0
0.066117,-5.5888e-07,7.9245e-05,-2.3675e-05,1.7737e-10,12.487,0.016381,5.5642e-06,1,857,857,0,0
0.066196,-5.6051e-07,7.9244e-05,-2.3662e-05,1.7951e-10,12.488,0.018512,5.6332e-06,1,858,858,0,0
0.066275,-5.6214e-07,7.9243e-05,-2.365e-05,1.8165e-10,12.488,0.020642,5.7021e-06,1,859,859,0,0
0.066355,-5.6378e-07,7.9242e-05,-2.3637e-05,1.838e-10,12.489,0.022773,5.7711e-06,1,860,860,0,0
0.066434,-5.6562e-07,7.9239e-05,-2.3623e-05,1.8487e-10,12.489,0.025159,5.8058e-06,1,861,861,0,0
0.066513,-5.6747e-07,7.9236e-05,-2.3608e-05,1.8595e-10,12.489,0.027545,5.8405e-06,1,862,862,0,0
0.066592,-5.6931e-07,7.9233e-05,-2.3594e-05,1.8702e-10,12.49,0.029931,5.8751e-06,1,863,863,0,0
0.066672,-5.7116e-07,7.923e-05,-2.3579e-05,1.881e-10,12.49,0.032317,5.9098e-06,1,864,864,0,0
0.066751,-5.73e-07,7.9227e-05,-2.3565e-05,1.8917e-10,12.49,0.034703,5.9445e-06,1,865,865,0,0
0.06683,-5.7484e-07,7.9224e-05,-2.355e-05,1.9025e-10,12.491,0.037089,5.9792e-06,1,866,866,0,0
0.066909,-5.7669e-07,7.9221e-05,-2.3536e-05,1.9132e-10,12.491,0.039475,6.0138e-06,1,867,867,0,0
0.066988,-5.7853e-07,7.9219e-05,-2.3521e-05,1.924e-10,12.491,0.041862,6.0485e-06,1,868,868,0,0
0.067068,-5.8038e-07,7.9216e-05,-2.3507e-05,1.9347e-10,12.491,0.044248,6.0832e-06,1,869,869,0,0
0.067147,-5.8222e-07,7.9213e-05,-2.3492e-05,1.9455e-10,12.492,0.046634,6.1179e-06,1,870,870,0,0
0.067226,-5.8436e-07,7.9208e-05,-2.3475e-05,2.0599e-10,12.492,0.049281,6.4875e-06,1,871,871,0,0
0.067305,-5.865e-07,7.9202e-05,-2.3459e-05,2.1743e-10,12.492,0.051928,6.8572e-06,1,872,872,0,0
0.067384,-5.8864e-07,7.9197e-05,-2.3442e-05,2.2887e-10,12.492,0.054575,7.2269e-06,1,873,873,0,0
0.067464,-5.9079e-07,7.9192e-05,-2.3425e-05,2.4032e-10,12.492,0.057222,7.5966e-06,1,874,874,0,0
0.067543,-5.9293e-07,7.9187e-05,-2.3409e-05,2.5176e-10,12.492,0.059869,7.9663e-06,1,875,875,0,0
0.067622,-5.9507e-07,7.9182e-05,-2.3392e-05,2.632e-10,12.492,0.062517,8.336e-06,1,876,876,0,0
0.067701,-5.9721e-07,7.9176e-05,-2.3375e-05,2.7464e-10,12.492,0.065164,8.7057e-06,1,877,877,0,0
0.06778,-5.9935e-07,7.9171e-05,-2.3359e-05,2.8609e-10,12.492,0.067811,9.0754e-06,1,878,878,0,0
0.06786,-6.0149e-07,7.9166e-05,-2.3342e-05,2.9753e-10,12.492,0.070458,9.4451e-06,1,879,879,0,0
0.067939,-6.0363e-07,7.9161e-05,-2.3325e-05,3.0897e-10,12.492,0.073105,9.8148e-06,1,880,880,0,0
0.068018,-6.0513e-07,7.9153e-05,-2.3307e-05,2.6907e-10,12.492,0.076003,8.526e-06,1,881,881,0,0
0.068097,-6.0663e-07,7.9145e-05,-2.3288e-05,2.2917e-10,12.492,0.078901,7.2372e-06,1,882,882,0,0
0.068176,-6.0813e-07,7.9137e-05,-2.3269e-05,1.8926e-10,12.492,0.081799,5.9484e-06,1,883,883,0,0
0.068255,-6.0963e-07,7.9129e-05,-2.325e-05,1.4936e-10,12.492,0.084697,4.6596e-06,1,884,884,0,0
0.068334,-6.1113e-07,7.9121e-05,-2.3231e-05,1.0946e-10,12.491,0.087596,3.3708e-06,1,885,885,0,0
0.068414,-6.1264e-07,7.9113e-05,-2.3212e-05,6.9556e-11,12.491,0.090494,2.082e-06,1,886,886,0,0
0.068493,-6.1414e-07,7.9105e-05,-2.3194e-05,2.9653e-11,12.491,0.093392,7.9321e-07,1,887,887,0,0
0.068572,-6.1564e-07,7.9097e-05,-2.3175e-05,-1.025e-11,12.491,0.09629,-4.9559e-07,1,888,888,0,0
0.068651,-6.1714e-07,7.9089e-05,-2.3156e-05,-5.0153e-11,12.49,0.099188,-1.7844e-06,1,889,889,0,0
0.06873,-6.1864e-07,7.9081e-05,-2.3137e-05,-9.0055e-11,12.49,0.10209,-3.0732e-06,1,890,890,0,0
0.068809,-6.1969e-07,7.907e-05,-2.3116e-05,-7.3473e-11,12.489,0.10521,-2.537e-06,1,891,891,0,0
0.068888,-6.2074e-07,7.9059e-05,-2.3095e-05,-5.689e-11,12.489,0.10833,-2.0009e-06,1,892,892,0,0
0.068967,-6.2179e-07,7.9048e-05,-2.3074e-05,-4.0308e-11,12.488,0.11145,-1.4647e-06,1,893,893,0,0
0.069046,-6.2284e-07,7.9037e-05,-2.3053e-05,-2.3725e-11,12.488,0.11457,-9.286e-07,1,894,894,0,0
0.069125,-6.2388e-07,7.9026e-05,-2.3032e-05,-7.1428e-12,12.487,0.11769,-3.9245e-07,1,895,895,0,0
0.069204,-6.2493e-07,7.9015e-05,-2.3011e-05,9.4398e-12,12.486,0.12081,1.4371e-07,1,896,896,0,0
0.069283,-6.2598e-07,7.9003e-05,-2.299e-05,2.6022e-11,12.486,0.12394,6.7986e-07,1,897,897,0,0
0.069362,-6.2703e-07,7.8992e-05,-2.2969e-05,4.2605e-11,12.485,0.12706,1.216e-06,1,898,898,0,0
0.069441,-6.2808e-07,7.8981e-05,-2.2948e-05,5.9187e-11,12.485,0.13018,1.7522e-06,1,899,899,0,0
0.06952,-6.2913e-07,7.897e-05,-2.2928e-05,7.577e-11,12.484,0.1333,2.2883e-06,1,900,900,0,0
0.069599,-6.3064e-07,7.8953e-05,-2.2904e-05,7.3044e-11,12.482,0.13648,2.2009e-06,1,901,901,0,0
0.069678,-6.3215e-07,7.8935e-05,-2.2881e-05,7.0318e-11,12.481,0.13966,2.1135e-06,1,902,902,0,0
0.069757,-6.3366e-07,7.8918e-05,-2.2858e-05,6.7591e-11,12.48,0.14285,2.0261e-06,1,903,903,0,0
0.069836,-6.3517e-07,7.89e-05,-2.2835e-05,6.4865e-11,12.478,0.14603,1.9387e-06,1,904,904,0,0
0.069915,-6.3668e-07,7.8883e-05,-2.2812e-05,6.2139e-11,12.477,0.14921,1.8513e-06,1,905,905,0,0
0.069994,-6.3819e-07,7.8866e-05,-2.2789e-05,5.9413e-11,12.475,0.15239,1.7639e-06,1,906,906,0,0
0.070073,-6.3969e-07,7.8848e-05,-2.2766e-05,5.6687e-11,12.474,0.15558,1.6765e-06,1,907,907,0,0
0.070152,-6.412e-07,7.8831e-05,-2.2743e-05,5.3961e-11,12.472,0.15876,1.5891e-06,1,908,908,0,0
0.070231,-6.4271e-07,7.8813e-05,-2.272e-05,5.1234e-11,12.471,0.16194,1.5017e-06,1,909,909,0,0
0.070309,-6.4422e-07,7.8796e-05,-2.2697e-05,4.8508e-11,12.47,0.16512,1.4143e-06,1,910,910,0,0
0.070388,-6.4594e-07,7.8765e-05,-2.2672e-05,4.5484e-11,12.466,0.16796,1.3176e-06,1,911,911,0,0
0.070467,-6.4766e-07,7.8735e-05,-2.2646e-05,4.246e-11,12.463,0.1708,1.2208e-06,1,912,912,0,0
0.070546,-6.4938e-07,7.8704e-05,-2.2621e-05,3.9436e-11,12.46,0.17363,1.1241e-06,1,913,913,0,0
0.070624,-6.511e-07,7.8673e-05,-2.2596e-05,3.6412e-11,12.457,0.17647,1.0274e-06,1,914,914,0,0
0.070703,-6.5282e-07,7.8642e-05,-2.2571e-05,3.3388e-11,12.453,0.1793,9.3065e-07,1,915,915,0,0
0.070782,-6.5453e-07,7.8612e-05,-2.2546e-05,3.0363e-11,12.45,0.18214,8.3392e-07,1,916,916,0,0
0.07086,-6.5625e-07,7.8581e-05,-2.2521e-05,2.7339e-11,12.447,0.18497,7.3719e-07,1,917,917,0,0
0.070939,-6.5797e-07,7.855e-05,-2.2496e-05,2.4315e-11,12.444,0.18781,6.4046e-07,1,918,918,0,0
0.071018,-6.5969e-07,7.8519e-05,-2.2471e-05,2.1291e-11,12.44,0.19065,5.4373e-07,1,919,919,0,0
0.071096,-6.6141e-07,7.8489e-05,-2.2446e-05,1.8267e-11,12.437,0.19348,4.47e-07,1,920,920,0,0
0.071175,-6.6308e-07,7.8438e-05,-2.2419e-05,1.4644e-11,12.431,0.19558,3.3122e-07,1,921,921,0,0
0.071253,-6.6474e-07,7.8388e-05,-2.2392e-05,1.1021e-11,12.425,0.19769,2.1544e-07,1,922,922,0,0
0.071331,-6.6641e-07,7.8337e-05,-2.2365e-05,7.3982e-12,12.419,0.19979,9.9666e-08,1,923,923,0,0
0.07141,-6.6808e-07,7.8287e-05,-2.2338e-05,3.7752e-12,12.414,0.20189,-1.6111e-08,1,924,924,0,0
0.071488,-6.6975e-07,7.8236e-05,-2.2311e-05,1.523e-13,12.408,0.204,-1.3189e-07,1,925,925,0,0
0.071566,-6.7141e-07,7.8186e-05,-2.2285e-05,-3.4706e-12,12.402,0.2061,-2.4767e-07,1,926,926,0,0
0.071644,-6.7308e-07,7.8135e-05,-2.2258e-05,-7.0936e-12,12.396,0.2082,-3.6344e-07,1,927,927,0,0
0.071723,-6.7475e-07,7.8085e-05,-2.2231e-05,-1.0717e-11,12.39,0.2103,-4.7922e-07,1,928,928,0,0
0.071801,-6.7642e-07,7.8034e-05,-2.2204e-05,-1.4339e-11,12.384,0.21241,-5.95e-07,1,929,929,0,0
0.071879,-6.7808e-07,7.7984e-05,-2.2177e-05,-1.7962e-11,12.378,0.21451,-7.1077e-07,1,930,930,0,0
0.071957,-6.7974e-07,7.7911e-05,-2.2149e-05,-1.5692e-11,12.369,0.21568,-6.3604e-07,1,931,931,0,0
0.072035,-6.814e-07,7.7837e-05,-2.212e-05,-1.3423e-11,12.36,0.21685,-5.613e-07,1,932,932,0,0
0.072112,-6.8305e-07,7.7764e-05,-2.2092e-05,-1.1153e-11,12.351,0.21802,-4.8656e-07,1,933,933,0,0
0.07219,-6.8471e-07,7.7691e-05,-2.2063e-05,-8.8828e-12,12.342,0.21919,-4.1182e-07,1,934,934,0,0
0.072268,-6.8636e-07,7.7617e-05,-2.2035e-05,-6.6129e-12,12.333,0.22036,-3.3708e-07,1,935,935,0,0
0.072345,-6.8802e-07,7.7544e-05,-2.2006e-05,-4.3429e-12,12.324,0.22153,-2.6234e-07,1,936,936,0,0
0.072423,-6.8968e-07,7.7471e-05,-2.1978e-05,-2.073e-12,12.315,0.2227,-1.876e-07,1,937,937,0,0
0.072501,-6.9133e-07,7.7398e-05,-2.1949e-05,1.9687e-13,12.306,0.22388,-1.1286e-07,1,938,938,0,0
0.072578,-6.9299e-07,7.7324e-05,-2.1921e-05,2.4668e-12,12.297,0.22505,-3.8126e-08,1,939,939,0,0
0.072656,-6.9464e-07,7.7251e-05,-2.1892e-05,4.7367e-12,12.288,0.22622,3.6613e-08,1,940,940,0,0
0.072733,-6.9632e-07,7.7154e-05,-2.1863e-05,-7.5441e-12,12.276,0.22634,-3.587e-07,1,941,941,0,0
0.07281,-6.98e-07,7.7057e-05,-2.1833e-05,-1.9825e-11,12.264,0.22647,-7.5402e-07,1,942,942,0,0
0.072886,-6.9968e-07,7.6961e-05,-2.1803e-05,-3.2106e-11,12.252,0.22659,-1.1493e-06,1,943,943,0,0
0.072963,-7.0136e-07,7.6864e-05,-2.1774e-05,-4.4386e-11,12.239,0.22672,-1.5447e-06,1,944,944,0,0
0.07304,-7.0303e-07,7.6767e-05,-2.1744e-05,-5.6667e-11,12.227,0.22685,-1.94e-06,1,945,945,0,0
0.073117,-7.0471e-07,7.667e-05,-2.1714e-05,-6.8948e-11,12.215,0.22697,-2.3353e-06,1,946,946,0,0
0.073194,-7.0639e-07,7.6573e-05,-2.1684e-05,-8.1229e-11,12.203,0.2271,-2.7306e-06,1,947,947,0,0
0.073271,-7.0807e-07,7.6476e-05,-2.1655e-05,-9.3509e-11,12.19,0.22722,-3.1259e-06,1,948,948,0,0
0.073347,-7.0975e-07,7.638e-05,-2.1625e-05,-1.0579e-10,12.178,0.22735,-3.5212e-06,1,949,949,0,0
0.073424,-7.1143e-07,7.6283e-05,-2.1595e-05,-1.1807e-10,12.166,0.22748,-3.9166e-06,1,950,950,0,0
0.0735,-7.1312e-07,7.6163e-05,-2.1565e-05,-1.1507e-10,12.151,0.2265,-3.8181e-06,1,951,951,0,0
0.073576,-7.1481e-07,7.6043e-05,-2.1535e-05,-1.1206e-10,12.135,0.22553,-3.7196e-06,1,952,952,0,0
0.073652,-7.165e-07,7.5923e-05,-2.1504e-05,-1.0906e-10,12.12,0.22456,-3.6211e-06,1,953,953,0,0
0.073727,-7.182e-07,7.5804e-05,-2.1474e-05,-1.0606e-10,12.104,0.22358,-3.5227e-06,1,954,954,0,0
0.073803,-7.1989e-07,7.5684e-05,-2.1443e-05,-1.0305e-10,12.089,0.22261,-3.4242e-06,1,955,955,0,0
0.073879,-7.2158e-07,7.5564e-05,-2.1413e-05,-1.0005e-10,12.074,0.22164,-3.3257e-06,1,956,956,0,0
0.073954,-7.2328e-07,7.5444e-05,-2.1382e-05,-9.7047e-11,12.058,0.22066,-3.2272e-06,1,957,957,0,0
0.07403,-7.2497e-07,7.5324e-05,-2.1352e-05,-9.4043e-11,12.043,0.21969,-3.1288e-06,1,958,958,0,0
0.074106,-7.2666e-07,7.5204e-05,-2.1321e-05,-9.104e-11,12.028,0.21872,-3.0303e-06,1,959,959,0,0
0.074182,-7.2836e-07,7.5085e-05,-2.1291e-05,-8.8036e-11,12.012,0.21774,-2.9318e-06,1,960,960,0,0
0.074256,-7.3014e-07,7.4944e-05,-2.126e-05,-8.5769e-11,11.994,0.21568,-2.8572e-06,1,961,961,0,0
0.074331,-7.3193e-07,7.4803e-05,-2.123e-05,-8.3501e-11,11.976,0.21362,-2.7825e-06,1,962,962,0,0
0.074405,-7.3372e-07,7.4662e-05,-2.1199e-05,-8.1233e-11,11.957,0.21157,-2.7078e-06,1,963,963,0,0
0.074479,-7.3551e-07,7.4521e-05,-2.1168e-05,-7.8966e-11,11.939,0.20951,-2.6332e-06,1,964,964,0,0
0.074554,-7.373e-07,7.438e-05,-2.1137e-05,-7.6698e-11,11.921,0.20745,-2.5585e-06,1,965,965,0,0
0.074628,-7.3908e-07,7.4239e-05,-2.1107e-05,-7.443e-11,11.902,0.20539,-2.4839e-06,1,966,966,0,0
0.074703,-7.4087e-07,7.4098e-05,-2.1076e-05,-7.2163e-11,11.884,0.20333,-2.4092e-06,1,967,967,0,0
0.074777,-7.4266e-07,7.3957e-05,-2.1045e-05,-6.9895e-11,11.866,0.20127,-2.3345e-06,1,968,968,0,0
0.074852,-7.4445e-07,7.3816e-05,-2.1014e-05,-6.7628e-11,11.848,0.19921,-2.2599e-06,1,969,969,0,0
0.074926,-7.4624e-07,7.3675e-05,-2.0984e-05,-6.536e-11,11.829,0.19715,-2.1852e-06,1,970,970,0,0
0.074999,-7.4799e-07,7.3517e-05,-2.0953e-05,-6.4779e-11,11.809,0.19408,-2.1651e-06,1,971,971,0,0
0.075072,-7.4974e-07,7.3358e-05,-2.0923e-05,-6.4198e-11,11.788,0.19101,-2.1449e-06,1,972,972,0,0
0.075145,-7.515e-07,7.3199e-05,-2.0892e-05,-6.3617e-11,11.767,0.18793,-2.1248e-06,1,973,973,0,0
0.075218,-7.5325e-07,7.304e-05,-2.0862e-05,-6.3036e-11,11.746,0.18486,-2.1047e-06,1,974,974,0,0
0.075291,-7.5501e-07,7.2881e-05,-2.0831e-05,-6.2455e-11,11.725,0.18179,-2.0846e-06,1,975,975,0,0
0.075364,-7.5676e-07,7.2722e-05,-2.0801e-05,-6.1874e-11,11.705,0.17872,-2.0644e-06,1,976,976,0,0
0.075436,-7.5851e-07,7.2564e-05,-2.077e-05,-6.1293e-11,11.684,0.17565,-2.0443e-06,1,977,977,0,0
0.075509,-7.6027e-07,7.2405e-05,-2.074e-05,-6.0712e-11,11.663,0.17258,-2.0242e-06,1,978,978,0,0
0.075582,-7.6202e-07,7.2246e-05,-2.0709e-05,-6.0131e-11,11.642,0.16951,-2.004e-06,1,979,979,0,0
0.075655,-7.6378e-07,7.2087e-05,-2.0679e-05,-5.955e-11,11.622,0.16643,-1.9839e-06,1,980,980,0,0
0.075726,-7.6558e-07,7.1915e-05,-2.0649e-05,-4.8202e-11,11.599,0.16249,-1.616e-06,1,981,981,0,0
0.075798,-7.6739e-07,7.1743e-05,-2.062e-05,-3.6853e-11,11.576,0.15855,-1.2482e-06,1,982,982,0,0
0.075869,-7.692e-07,7.1571e-05,-2.059e-05,-2.5505e-11,11.554,0.15461,-8.8031e-07,1,983,983,0,0
0.07594,-7.7101e-07,7.1399e-05,-2.0561e-05,-1.4157e-11,11.531,0.15067,-5.1244e-07,1,984,984,0,0
0.076011,-7.7282e-07,7.1228e-05,-2.0531e-05,-2.8083e-12,11.509,0.14673,-1.4457e-07,1,985,985,0,0
0.076083,-7.7463e-07,7.1056e-05,-2.0501e-05,8.5401e-12,11.486,0.14279,2.233e-07,1,986,986,0,0
0.076154,-7.7644e-07,7.0884e-05,-2.0472e-05,1.9888e-11,11.464,0.13885,5.9117e-07,1,987,987,0,0
0.076225,-7.7824e-07,7.0712e-05,-2.0442e-05,3.1237e-11,11.441,0.13491,9.5903e-07,1,988,988,0,0
0.076296,-7.8005e-07,7.054e-05,-2.0413e-05,4.2585e-11,11.418,0.13097,1.3269e-06,1,989,989,0,0
0.076368,-7.8186e-07,7.0368e-05,-2.0383e-05,5.3934e-11,11.396,0.12703,1.6948e-06,1,990,990,0,0
0.076437,-7.8359e-07,7.028e-05,-2.0355e-05,3.9258e-11,11.385,0.12739,1.2216e-06,1,991,991,0,0
0.076507,-7.8531e-07,7.0191e-05,-2.0327e-05,2.4583e-11,11.375,0.12775,7.4843e-07,1,992,992,0,0
0.076576,-7.8704e-07,7.0103e-05,-2.0299e-05,9.9075e-12,11.364,0.1281,2.7525e-07,1,993,993,0,0
0.076646,-7.8876e-07,7.0014e-05,-2.0271e-05,-4.7679e-12,11.354,0.12846,-1.9792e-07,1,994,994,0,0
0.076715,-7.9049e-07,6.9926e-05,-2.0243e-05,-1.9443e-11,11.343,0.12882,-6.7109e-07,1,995,995,0,0
0.076785,-7.9221e-07,6.9837e-05,-2.0215e-05,-3.4119e-11,11.332,0.12917,-1.1443e-06,1,996,996,0,0
0.076854,-7.9393e-07,6.9749e-05,-2.0187e-05,-4.8794e-11,11.322,0.12953,-1.6174e-06,1,997,997,0,0
0.076924,-7.9566e-07,6.966e-05,-2.0159e-05,-6.347e-11,11.311,0.12989,-2.0906e-06,1,998,998,0,0
0.076993,-7.9738e-07,6.9572e-05,-2.0131e-05,-7.8145e-11,11.301,0.13025,-2.5638e-06,1,999,999,0,0
0.077063,-7.9911e-07,6.9483e-05,-2.0102e-05,-9.282e-11,11.29,0.1306,-3.037e-06,1,1000,1000,0,0
